19
charge=+2 | mult=2 | uhf=1 | uks=true | species=cu_aquo6 | label=[Cu(H2O)6]2+ | formula=H12O6Cu1 | role=reactant | protonation=n-a | metal=Cu | config=d9, OPEN SHELL DOUBLET (UKS) | builder=build_structures.py
Cu     0.00000000     0.00000000     0.00000000
O      2.00000000     0.00000000     0.00000000
H      2.58650415    -0.75748061     0.00000000
H      2.58650415     0.75748061     0.00000000
O     -2.00000000     0.00000000     0.00000000
H     -2.58650415     0.60495091    -0.45586321
H     -2.58650415    -0.60495091     0.45586321
O      0.00000000     2.00000000     0.00000000
H      0.20878995     2.58650415    -0.72813710
H     -0.20878995     2.58650415     0.72813710
O      0.00000000    -2.00000000     0.00000000
H      0.27145677    -2.58650415    -0.70716907
H     -0.27145677    -2.58650415     0.70716907
O      0.00000000     0.00000000     2.33000000
H     -0.40140357    -0.64237999     2.91650415
H      0.40140357     0.64237999     2.91650415
O      0.00000000     0.00000000    -2.33000000
H      0.06601879     0.75459817    -2.91650415
H     -0.06601879    -0.75459817    -2.91650415
