34
charge=+2 | mult=2 | uhf=1 | uks=true | species=cu_P0_cplx | label=[Cu(LH2)(H2O)4]2+ | formula=C8H16O9Cu1 | role=product | protonation=P0 | metal=Cu | config=d9, OPEN SHELL DOUBLET (UKS) | ligand_source=xtb-preoptimised ligand | builder=build_structures.py
Cu    -4.68968876     0.23959730    -0.73662609
C      3.86966405    -0.72770400     0.68976087
O      2.59331255    -0.15193583     0.41093890
C      1.54968505    -0.98091745     0.37829345
O      1.66097739    -2.18005932     0.57473180
C      0.27629420    -0.30522774     0.08626399
C     -0.88023124    -1.08260570     0.03025853
C     -2.09834843    -0.48922165    -0.24037127
O     -3.27494917    -1.17330936    -0.31386758
C     -2.16714815     0.89163323    -0.45737535
O     -3.34640017     1.51394267    -0.72655063
C     -1.00362520     1.66944329    -0.40059640
O     -1.06575378     3.00561039    -0.61028828
C      0.21483725     1.06852727    -0.12888153
H      3.85614750    -1.21087451     1.66775508
H      4.57261944     0.09905543     0.67159233
H      4.11796484    -1.47156175    -0.06862101
H     -0.79715209    -2.14469080     0.20170912
H     -3.13255791    -2.11767460    -0.15722455
H     -4.05916026     0.85401134    -0.73530343
H     -1.98885858     3.25799467    -0.78444372
H      1.10268271     1.67556439    -0.08778035
O     -6.12197844    -1.15629643    -0.74181676
H     -7.07068337    -1.02317751    -0.74333893
H     -6.01331737    -2.10811283    -0.74333893
O     -6.05462911     1.64166487    -1.15032207
H     -5.97357204     2.37794687    -1.75784373
H     -6.93622937     1.72770133    -0.78543481
O     -5.03030756     0.58062049     1.54297520
H     -5.85809790     0.75449914     1.99274555
H     -4.37399734     0.57842553     2.24084058
O     -4.34906996    -0.10142588    -3.01622737
H     -4.89178168     0.20700523    -3.74293105
H     -3.63487813    -0.58154069    -3.43715942
