32
charge=+0 | mult=2 | uhf=1 | uks=true | species=cu_P2_cplx | label=[Cu(L)(H2O)4]0 | formula=C8H14O9Cu1 | role=product | protonation=P2 | metal=Cu | config=d9, OPEN SHELL DOUBLET (UKS) | ligand_source=xtb-preoptimised ligand | builder=build_structures.py
Cu    -4.54899434     0.27394971    -0.72090030
C      3.86433430    -0.74884380     0.69224326
O      2.61488197    -0.12625019     0.41052736
C      1.52217301    -0.95450950     0.36996622
O      1.68141646    -2.16644305     0.57465037
C      0.29338539    -0.29048956     0.08658321
C     -0.89868192    -1.04032637     0.02052243
C     -2.15492238    -0.49568698    -0.24855544
O     -3.23239411    -1.21939742    -0.30204826
C     -2.19199431     0.93808588    -0.46762528
O     -3.26478706     1.62183039    -0.72929737
C     -0.97253944     1.66664791    -0.39509401
O     -1.11898734     3.02953569    -0.62135238
C      0.24203562     1.09783940    -0.12867447
H      3.82733774    -1.23878409     1.66754244
H      4.59118865     0.05761165     0.68080353
H      4.08903040    -1.49928752    -0.06866498
H     -0.83643716    -2.11188288     0.18944516
H     -2.09413089     3.08689329    -0.77645847
H      1.13556004     1.70140882    -0.08576851
O     -5.98831049    -1.11468009    -0.72963427
H     -6.93632804    -0.97676642    -0.73219553
H     -5.88445786    -2.06703090    -0.73219553
O     -5.90648087     1.68358043    -1.13341881
H     -5.82168420     2.41967511    -1.74065695
H     -6.78744903     1.77424003    -0.76812450
O     -4.88984257     0.61289965     1.55897589
H     -5.71767974     0.78635807     2.00882230
H     -4.23360102     0.61008118     2.25690360
O     -4.20814610    -0.06500023    -3.00077648
H     -4.75079082     0.24408209    -3.72725348
H     -3.49390576    -0.54472251    -3.42207361
