33
charge=+1 | mult=2 | uhf=1 | uks=true | species=cu_P1_cplx | label=[Cu(LH)(H2O)4]1+ | formula=C8H15O9Cu1 | role=product | protonation=P1 | metal=Cu | config=d9, OPEN SHELL DOUBLET (UKS) | ligand_source=xtb-preoptimised ligand | builder=build_structures.py
Cu    -4.61016555     0.25003941    -0.72453213
C      3.86221302    -0.75354422     0.69254488
O      2.60673196    -0.14090769     0.41122496
C      1.52957675    -0.96209770     0.37242772
O      1.65728636    -2.17069388     0.57243326
C      0.29157440    -0.28825536     0.08618719
C     -0.89143126    -1.04262249     0.02247624
C     -2.10466440    -0.46349585    -0.24453618
O     -3.26559195    -1.20559852    -0.30721735
C     -2.20881416     0.94079494    -0.46947485
O     -3.28807893     1.57524708    -0.72467439
C     -0.97964569     1.67941155    -0.39779796
O     -1.11085911     3.02817125    -0.62047826
C      0.22659583     1.09963544    -0.13132466
H      3.83114153    -1.24067756     1.66891966
H      4.58613705     0.05527739     0.67971984
H      4.09268549    -1.50229796    -0.06761796
H     -0.81643148    -2.10887538     0.19213060
H     -3.05086689    -2.13711683    -0.14274462
H     -2.07468886     3.13906562    -0.78236387
H      1.11992286     1.70174009    -0.08886166
O     -6.05010866    -1.13794417    -0.73262082
H     -6.99806459    -0.99960428    -0.73499284
H     -5.94668534    -2.09034219    -0.73499284
O     -5.96713210     1.66020764    -1.13692439
H     -5.88208148     2.39629810    -1.74413211
H     -6.84804923     1.75118669    -0.77158644
O     -4.95022911     0.58954681     1.55537828
H     -5.77790607     0.76315336     2.00546228
H     -4.29375273     0.58686086     2.25308564
O     -4.27010200    -0.08946798    -3.00444255
H     -4.81297584     0.21946935    -3.73081003
H     -3.55602758    -0.56932592    -3.42586642
