19
charge=+2 | mult=1 | uhf=0 | uks=false | species=pb_aquo6 | label=[Pb(H2O)6]2+ | formula=H12O6Pb1 | role=reactant | protonation=n-a | metal=Pb | config=6s2, closed shell | builder=build_structures.py
Pb     0.00000000     0.00000000     0.00000000
O      2.55000000     0.00000000     0.00000000
H      3.13650415    -0.75748061     0.00000000
H      3.13650415     0.75748061     0.00000000
O     -2.55000000     0.00000000     0.00000000
H     -3.13650415     0.60495091    -0.45586321
H     -3.13650415    -0.60495091     0.45586321
O      0.00000000     2.55000000     0.00000000
H      0.20878995     3.13650415    -0.72813710
H     -0.20878995     3.13650415     0.72813710
O      0.00000000    -2.55000000     0.00000000
H      0.27145677    -3.13650415    -0.70716907
H     -0.27145677    -3.13650415     0.70716907
O      0.00000000     0.00000000     2.55000000
H     -0.40140357    -0.64237999     3.13650415
H      0.40140357     0.64237999     3.13650415
O      0.00000000     0.00000000    -2.55000000
H      0.06601879     0.75459817    -3.13650415
H     -0.06601879    -0.75459817    -3.13650415
