25
charge=+2 | mult=1 | uhf=0 | uks=false | species=pb_aquo8 | label=[Pb(H2O)8]2+ | formula=H16O8Pb1 | role=reactant | protonation=n-a | metal=Pb | config=6s2, closed shell | builder=build_structures.py
Pb     0.00000000     0.00000000     0.00000000
O      2.27766344     0.00000000     1.35452917
H      2.78176120    -0.75748061     1.65431671
H      2.78176120     0.75748061     1.65431671
O      0.00000000     2.27766344     1.35452917
H      0.60495091     3.01477252     1.26250427
H     -0.60495091     2.54874987     2.04612915
O     -2.27766344     0.00000000     1.35452917
H     -3.15394344     0.20878995     1.02848606
H     -2.40957895    -0.20878995     2.28014737
O     -0.00000000    -2.27766344     1.35452917
H      0.27145677    -3.14322578     1.04650798
H     -0.27145677    -2.42029662     2.26212545
O      1.61055126     1.61055126    -1.35452917
H      1.36769057     2.27615306    -1.99932133
H      2.56631384     1.65785135    -1.30931210
O     -1.61055126     1.61055126    -1.35452917
H     -2.52444504     1.45728207    -1.59757386
H     -1.40955937     2.47672234    -1.71105957
O     -1.61055126    -1.61055126    -1.35452917
H     -1.75215265    -2.54823863    -1.21867838
H     -2.18185176    -1.38576578    -2.08995505
O      1.61055126    -1.61055126    -1.35452917
H      2.33795147    -2.13354937    -1.01522708
H      1.59605294    -1.80045504    -2.29340635
