33
charge=+1 | mult=1 | uhf=0 | uks=false | species=pb_P1_cplx | label=[Pb(LH)(H2O)4]1+ | formula=C8H15O9Pb1 | role=product | protonation=P1 | metal=Pb | config=6s2, closed shell | ligand_source=xtb-preoptimised ligand | builder=build_structures.py
Pb    -5.19622473     0.27870443    -0.81621528
C      3.86221302    -0.75354422     0.69254488
O      2.60673196    -0.14090769     0.41122496
C      1.52957675    -0.96209770     0.37242772
O      1.65728636    -2.17069388     0.57243326
C      0.29157440    -0.28825536     0.08618719
C     -0.89143126    -1.04262249     0.02247624
C     -2.10466440    -0.46349585    -0.24453618
O     -3.26559195    -1.20559852    -0.30721735
C     -2.20881416     0.94079494    -0.46947485
O     -3.28807893     1.57524708    -0.72467439
C     -0.97964569     1.67941155    -0.39779796
O     -1.11085911     3.02817125    -0.62047826
C      0.22659583     1.09963544    -0.13132466
H      3.83114153    -1.24067756     1.66891966
H      4.58613705     0.05527739     0.67971984
H      4.09268549    -1.50229796    -0.06761796
H     -0.81643148    -2.10887538     0.19213060
H     -3.05086689    -2.13711683    -0.14274462
H     -2.07468886     3.13906562    -0.78236387
H      1.11992286     1.70174009    -0.08886166
O     -7.05605300    -1.46578059    -0.83384502
H     -8.00203033    -1.31453752    -0.83789989
H     -6.96560275    -2.41949244    -0.83789989
O     -6.90063852     2.10112379    -1.34182095
H     -6.80515978     2.83596473    -1.94899194
H     -7.78015315     2.20460168    -0.97643030
O     -5.56839728     0.65026832     1.67896565
H     -6.39607425     0.82387487     2.12904965
H     -4.91192091     0.64758237     2.37667301
O     -4.82405217    -0.09285946    -3.31139620
H     -5.36692601     0.21607788    -4.03776369
H     -4.10997775    -0.57271739    -3.73282007
