34
charge=+2 | mult=1 | uhf=0 | uks=false | species=pb_P0_cplx | label=[Pb(LH2)(H2O)4]2+ | formula=C8H16O9Pb1 | role=product | protonation=P0 | metal=Pb | config=6s2, closed shell | ligand_source=xtb-preoptimised ligand | builder=build_structures.py
Pb    -5.26193917     0.26834674    -0.82643279
C      3.86966405    -0.72770400     0.68976087
O      2.59331255    -0.15193583     0.41093890
C      1.54968505    -0.98091745     0.37829345
O      1.66097739    -2.18005932     0.57473180
C      0.27629420    -0.30522774     0.08626399
C     -0.88023124    -1.08260570     0.03025853
C     -2.09834843    -0.48922165    -0.24037127
O     -3.27494917    -1.17330936    -0.31386758
C     -2.16714815     0.89163323    -0.45737535
O     -3.34640017     1.51394267    -0.72655063
C     -1.00362520     1.66944329    -0.40059640
O     -1.06575378     3.00561039    -0.61028828
C      0.21483725     1.06852727    -0.12888153
H      3.85614750    -1.21087451     1.66775508
H      4.57261944     0.09905543     0.67159233
H      4.11796484    -1.47156175    -0.06862101
H     -0.79715209    -2.14469080     0.20170912
H     -3.13255791    -2.11767460    -0.15722455
H     -4.05916026     0.85401134    -0.73530343
H     -1.98885858     3.25799467    -0.78444372
H      1.10268271     1.67556439    -0.08778035
O     -7.11628972    -1.48198237    -0.84166521
H     -8.06274004    -1.33371400    -0.84516869
H     -7.02284669    -2.43540784    -0.84516869
O     -6.97217861     2.08481384    -1.35371670
H     -6.87887110     2.81967170    -1.96120467
H     -7.85220182     2.18553677    -0.98878105
O     -5.63471940     0.64156954     1.66840982
H     -6.46250973     0.81544819     2.11818018
H     -4.97840918     0.63937458     2.36627520
O     -4.88915894    -0.10487606    -3.32127540
H     -5.43187065     0.20355505    -4.04797908
H     -4.17496710    -0.58499087    -3.74220744
