32
charge=+0 | mult=1 | uhf=0 | uks=false | species=pb_P2_cplx | label=[Pb(L)(H2O)4]0 | formula=C8H14O9Pb1 | role=product | protonation=P2 | metal=Pb | config=6s2, closed shell | ligand_source=xtb-preoptimised ligand | builder=build_structures.py
Pb    -5.14468344     0.30726735    -0.81491093
C      3.86433430    -0.74884380     0.69224326
O      2.61488197    -0.12625019     0.41052736
C      1.52217301    -0.95450950     0.36996622
O      1.68141646    -2.16644305     0.57465037
C      0.29338539    -0.29048956     0.08658321
C     -0.89868192    -1.04032637     0.02052243
C     -2.15492238    -0.49568698    -0.24855544
O     -3.23239411    -1.21939742    -0.30204826
C     -2.19199431     0.93808588    -0.46762528
O     -3.26478706     1.62183039    -0.72929737
C     -0.97253944     1.66664791    -0.39509401
O     -1.11898734     3.02953569    -0.62135238
C      0.24203562     1.09783940    -0.12867447
H      3.82733774    -1.23878409     1.66754244
H      4.59118865     0.05761165     0.68080353
H      4.08903040    -1.49928752    -0.06866498
H     -0.83643716    -2.11188288     0.18944516
H     -2.09413089     3.08689329    -0.77645847
H      1.13556004     1.70140882    -0.08576851
O     -7.00802517    -1.43344119    -0.83469431
H     -7.95369196    -1.28028240    -0.83924452
H     -6.91950164    -2.38733158    -0.83924452
O     -6.84506730     2.13341824    -1.34061779
H     -6.74795457     2.86802922    -1.94780789
H     -7.72436213     2.23884261    -0.97525456
O     -5.51771477     0.67822115     1.68023254
H     -6.34555194     0.85167958     2.13007895
H     -4.86147322     0.67540268     2.37816025
O     -4.77165211    -0.06368644    -3.31005439
H     -5.31429683     0.24539588    -4.03653139
H     -4.05741177    -0.54340872    -3.73135152
