19
charge=+2 | mult=1 | uhf=0 | uks=false | species=zn_aquo6 | label=[Zn(H2O)6]2+ | formula=H12O6Zn1 | role=reactant | protonation=n-a | metal=Zn | config=d10, closed shell | builder=build_structures.py
Zn     0.00000000     0.00000000     0.00000000
O      2.10000000     0.00000000     0.00000000
H      2.68650415    -0.75748061     0.00000000
H      2.68650415     0.75748061     0.00000000
O     -2.10000000     0.00000000     0.00000000
H     -2.68650415     0.60495091    -0.45586321
H     -2.68650415    -0.60495091     0.45586321
O      0.00000000     2.10000000     0.00000000
H      0.20878995     2.68650415    -0.72813710
H     -0.20878995     2.68650415     0.72813710
O      0.00000000    -2.10000000     0.00000000
H      0.27145677    -2.68650415    -0.70716907
H     -0.27145677    -2.68650415     0.70716907
O      0.00000000     0.00000000     2.10000000
H     -0.40140357    -0.64237999     2.68650415
H      0.40140357     0.64237999     2.68650415
O      0.00000000     0.00000000    -2.10000000
H      0.06601879     0.75459817    -2.68650415
H     -0.06601879    -0.75459817    -2.68650415
