33
charge=+1 | mult=1 | uhf=0 | uks=false | species=zn_P1_cplx | label=[Zn(LH)(H2O)4]1+ | formula=C8H15O9Zn1 | role=product | protonation=P1 | metal=Zn | config=d10, closed shell | ligand_source=xtb-preoptimised ligand | builder=build_structures.py
Zn    -4.68043866     0.25347658    -0.73552566
C      3.86221302    -0.75354422     0.69254488
O      2.60673196    -0.14090769     0.41122496
C      1.52957675    -0.96209770     0.37242772
O      1.65728636    -2.17069388     0.57243326
C      0.29157440    -0.28825536     0.08618719
C     -0.89143126    -1.04262249     0.02247624
C     -2.10466440    -0.46349585    -0.24453618
O     -3.26559195    -1.20559852    -0.30721735
C     -2.20881416     0.94079494    -0.46947485
O     -3.28807893     1.57524708    -0.72467439
C     -0.97964569     1.67941155    -0.39779796
O     -1.11085911     3.02817125    -0.62047826
C      0.22659583     1.09963544    -0.13132466
H      3.83114153    -1.24067756     1.66891966
H      4.58613705     0.05527739     0.67971984
H      4.09268549    -1.50229796    -0.06761796
H     -0.81643148    -2.10887538     0.19213060
H     -3.05086689    -2.13711683    -0.14274462
H     -2.07468886     3.13906562    -0.78236387
H      1.11992286     1.70174009    -0.08886166
O     -6.19525741    -1.20090865    -0.74489450
H     -7.14293696    -1.06069234    -0.74751110
H     -6.09371832    -2.15350876    -0.74751110
O     -6.10219285     1.73709762    -1.16851947
H     -6.01562474     2.47301458    -1.77572305
H     -6.98291784     1.82989485    -0.80317558
O     -4.98693371     0.55947037     1.31932922
H     -5.81461068     0.73307692     1.76941322
H     -4.33045734     0.55678442     2.01703657
O     -4.37394362    -0.05251722    -2.79038055
H     -4.91681745     0.25642012    -3.51674803
H     -3.65986919    -0.53237515    -3.21180442
