34
charge=+2 | mult=1 | uhf=0 | uks=false | species=zn_P0_cplx | label=[Zn(LH2)(H2O)4]2+ | formula=C8H16O9Zn1 | role=product | protonation=P0 | metal=Zn | config=d10, closed shell | ligand_source=xtb-preoptimised ligand | builder=build_structures.py
Zn    -4.75772648     0.24301547    -0.74730365
C      3.86966405    -0.72770400     0.68976087
O      2.59331255    -0.15193583     0.41093890
C      1.54968505    -0.98091745     0.37829345
O      1.66097739    -2.18005932     0.57473180
C      0.27629420    -0.30522774     0.08626399
C     -0.88023124    -1.08260570     0.03025853
C     -2.09834843    -0.48922165    -0.24037127
O     -3.27494917    -1.17330936    -0.31386758
C     -2.16714815     0.89163323    -0.45737535
O     -3.34640017     1.51394267    -0.72655063
C     -1.00362520     1.66944329    -0.40059640
O     -1.06575378     3.00561039    -0.61028828
C      0.21483725     1.06852727    -0.12888153
H      3.85614750    -1.21087451     1.66775508
H      4.57261944     0.09905543     0.67159233
H      4.11796484    -1.47156175    -0.06862101
H     -0.79715209    -2.14469080     0.20170912
H     -3.13255791    -2.11767460    -0.15722455
H     -4.05916026     0.85401134    -0.73530343
H     -1.98885858     3.25799467    -0.78444372
H      1.10268271     1.67556439    -0.08778035
O     -6.26502898    -1.21917370    -0.75378512
H     -7.21342155    -1.08385092    -0.75559532
H     -6.15857848    -2.17123936    -0.75559532
O     -6.18733934     1.71866200    -1.18167027
H     -6.10449876     2.45474815    -1.78918869
H     -7.06872648     1.80683569    -0.81677835
O     -5.06472196     0.55037542     1.30727261
H     -5.89251230     0.72425407     1.75704297
H     -4.40841174     0.54818046     2.00513799
O     -4.45073099    -0.06434448    -2.80187992
H     -4.99344271     0.24408663    -3.52858360
H     -3.73653916    -0.54445930    -3.22281197
