32
charge=+0 | mult=1 | uhf=0 | uks=false | species=zn_P2_cplx | label=[Zn(L)(H2O)4]0 | formula=C8H14O9Zn1 | role=product | protonation=P2 | metal=Zn | config=d10, closed shell | ligand_source=xtb-preoptimised ligand | builder=build_structures.py
Zn    -4.62087482     0.27797008    -0.73224435
C      3.86433430    -0.74884380     0.69224326
O      2.61488197    -0.12625019     0.41052736
C      1.52217301    -0.95450950     0.36996622
O      1.68141646    -2.16644305     0.57465037
C      0.29338539    -0.29048956     0.08658321
C     -0.89868192    -1.04032637     0.02052243
C     -2.15492238    -0.49568698    -0.24855544
O     -3.23239411    -1.21939742    -0.30204826
C     -2.19199431     0.93808588    -0.46762528
O     -3.26478706     1.62183039    -0.72929737
C     -0.97253944     1.66664791    -0.39509401
O     -1.11898734     3.02953569    -0.62135238
C      0.24203562     1.09783940    -0.12867447
H      3.82733774    -1.23878409     1.66754244
H      4.59118865     0.05761165     0.68080353
H      4.08903040    -1.49928752    -0.06866498
H     -0.83643716    -2.11188288     0.18944516
H     -2.09413089     3.08689329    -0.77645847
H      1.13556004     1.70140882    -0.08576851
O     -6.13555849    -1.17655019    -0.74245003
H     -7.08325001    -1.03641929    -0.74530036
H     -6.03393200    -2.12914031    -0.74530036
O     -6.04262027     1.76156228    -1.16536564
H     -5.95603099     2.49745262    -1.77259846
H     -6.92336156     1.85437002    -0.80006371
O     -4.92807709     0.58346144     1.32257968
H     -5.75591426     0.75691986     1.77242609
H     -4.27183554     0.58064297     2.02050739
O     -4.31367255    -0.02752129    -2.78706838
H     -4.85631726     0.28156104    -3.51354538
H     -3.59943221    -0.50724357    -3.20836551
