34
Coordinates from ORCA-job cu_P0_cplx E -2630.944267105944
  Cu     -4.959842     -0.106305     -0.728207
  C       3.453433     -1.514523      1.176657
  O       2.417809     -0.723093      0.601190
  C       1.189614     -0.884107      1.084535
  O       0.917568     -1.662056      1.980587
  C       0.188047     -0.024952      0.414520
  C      -1.136607     -0.113582      0.838035
  C      -2.109084      0.674955      0.251116
  O      -3.406984      0.647616      0.628774
  C      -1.758571      1.570791     -0.791963
  O      -2.623287      2.343160     -1.413937
  C      -0.398473      1.645734     -1.212364
  O      -0.062386      2.485206     -2.197151
  C       0.556727      0.849670     -0.608937
  H       3.555276     -1.287267      2.238869
  H       4.360263     -1.256196      0.638754
  H       3.222991     -2.574958      1.063523
  H      -1.369568     -0.802337      1.635117
  H      -3.524210      0.109064      1.432164
  H      -3.568588      2.253636     -1.091179
  H      -0.845790      2.980157     -2.506764
  H       1.580924      0.915675     -0.933502
  O      -6.551501     -0.475349     -1.968122
  H      -6.560232     -1.292908     -2.478815
  H      -7.442396     -0.333311     -1.627182
  O      -5.238121      2.043577     -0.918341
  H      -5.623213      2.496191     -0.156845
  H      -5.716887      2.332340     -1.706870
  O      -5.428597     -1.228386      0.984551
  H      -5.411738     -2.192037      0.937481
  H      -6.208321     -0.975478      1.493323
  O      -3.429103     -0.592793     -2.072280
  H      -3.552112     -0.217815     -2.953595
  H      -3.201018     -1.522809     -2.186197
34
Coordinates from ORCA-job cu_P0_cplx E -2630.948525872519
  Cu     -4.954042     -0.144024     -0.729388
  C       3.433274     -1.533779      1.152391
  O       2.413724     -0.717256      0.577267
  C       1.176857     -0.911432      1.020374
  O       0.900760     -1.730580      1.875990
  C       0.187008     -0.021443      0.381750
  C      -1.138488     -0.132396      0.779123
  C      -2.094922      0.687447      0.216606
  O      -3.404543      0.641307      0.587483
  C      -1.739574      1.645853     -0.748360
  O      -2.586894      2.507405     -1.304149
  C      -0.391608      1.734901     -1.150558
  O      -0.038211      2.641977     -2.081374
  C       0.559463      0.907163     -0.590464
  H       3.503362     -1.353285      2.226103
  H       4.356702     -1.246820      0.656986
  H       3.217131     -2.588966      0.979598
  H      -1.399760     -0.864343      1.534527
  H      -3.516084      0.104887      1.388978
  H      -3.522549      2.439534     -0.988375
  H      -0.812489      3.148639     -2.360760
  H       1.590022      0.996263     -0.906514
  O      -6.538320     -0.542407     -1.938535
  H      -6.556340     -1.394296     -2.390452
  H      -7.421484     -0.394225     -1.579807
  O      -5.170573      1.985956     -1.046158
  H      -5.545107      2.488542     -0.312005
  H      -5.655087      2.236950     -1.842880
  O      -5.468005     -1.152233      1.023507
  H      -5.492103     -2.115856      1.011651
  H      -6.257942     -0.857617      1.491246
  O      -3.457351     -0.758685     -2.039857
  H      -3.576788     -0.434754     -2.940572
  H      -3.284018     -1.704920     -2.106431
34
Coordinates from ORCA-job cu_P0_cplx E -2630.953111537985
  Cu     -4.971239     -0.131609     -0.728015
  C       3.442881     -1.509720      1.247556
  O       2.447346     -0.685228      0.633589
  C       1.199086     -0.902867      1.027433
  O       0.916127     -1.745036      1.855782
  C       0.221295     -0.021915      0.369506
  C      -1.109120     -0.159869      0.716695
  C      -2.046799      0.662340      0.135599
  O      -3.376976      0.600329      0.510565
  C      -1.694120      1.621508     -0.795364
  O      -2.552183      2.457533     -1.412246
  C      -0.358119      1.741792     -1.145346
  O       0.016570      2.672469     -2.068629
  C       0.597176      0.934038     -0.572110
  H       3.468303     -1.341153      2.324941
  H       4.387719     -1.209689      0.799572
  H       3.248730     -2.563306      1.044540
  H      -1.411654     -0.900163      1.456428
  H      -3.471435      0.058025      1.304348
  H      -3.484424      2.319353     -1.184509
  H      -0.754376      3.152487     -2.362289
  H       1.637787      1.057175     -0.863607
  O      -6.582539     -0.491075     -1.847953
  H      -6.613709     -1.348050     -2.292101
  H      -7.436183     -0.377361     -1.411045
  O      -5.190867      1.985941     -0.977411
  H      -5.545607      2.457796     -0.213551
  H      -5.718499      2.256112     -1.738276
  O      -5.432603     -1.169924      0.989787
  H      -5.485934     -2.129864      0.927314
  H      -6.218884     -0.885598      1.469457
  O      -3.585735     -0.741370     -2.123589
  H      -3.760516     -0.402282     -3.008551
  H      -3.465477     -1.693313     -2.221575
34
Coordinates from ORCA-job cu_P0_cplx E -2630.955637838919
  Cu     -4.954729     -0.120751     -0.721599
  C       3.436531     -1.531550      1.231560
  O       2.441605     -0.695106      0.632358
  C       1.191615     -0.902504      1.035380
  O       0.900412     -1.751579      1.854359
  C       0.218475     -0.012698      0.380157
  C      -1.117390     -0.142096      0.727266
  C      -2.048755      0.688103      0.143746
  O      -3.387282      0.614011      0.503366
  C      -1.691732      1.643112     -0.790442
  O      -2.545431      2.491227     -1.404772
  C      -0.350511      1.750751     -1.140821
  O       0.035884      2.675001     -2.069115
  C       0.601482      0.939866     -0.562774
  H       3.471989     -1.370783      2.309270
  H       4.379438     -1.232974      0.778851
  H       3.235373     -2.581336      1.018315
  H      -1.436529     -0.879685      1.457552
  H      -3.480164      0.070226      1.299300
  H      -3.482252      2.344075     -1.172165
  H      -0.744187      3.155180     -2.369921
  H       1.638766      1.055141     -0.856255
  O      -6.535485     -0.510249     -1.831667
  H      -6.536886     -1.382303     -2.248217
  H      -7.381412     -0.436723     -1.369836
  O      -5.210513      1.976904     -0.991676
  H      -5.581507      2.440641     -0.229938
  H      -5.755706      2.224951     -1.749104
  O      -5.429935     -1.148302      0.977978
  H      -5.488330     -2.107947      0.895002
  H      -6.241027     -0.873015      1.423064
  O      -3.583007     -0.731984     -2.110610
  H      -3.770381     -0.402667     -2.998219
  H      -3.482397     -1.687430     -2.203446
34
Coordinates from ORCA-job cu_P0_cplx E -2630.957342886068
  Cu     -4.928411     -0.092222     -0.703577
  C       3.437583     -1.526555      1.234575
  O       2.434492     -0.710050      0.624518
  C       1.178425     -0.941467      1.003940
  O       0.882272     -1.774640      1.837602
  C       0.209468     -0.031813      0.364190
  C      -1.131099     -0.149064      0.719277
  C      -2.057064      0.698168      0.146490
  O      -3.397909      0.618683      0.495420
  C      -1.693828      1.658725     -0.789499
  O      -2.538967      2.525511     -1.388144
  C      -0.342924      1.749061     -1.146452
  O       0.053648      2.671869     -2.068613
  C       0.602249      0.921488     -0.574446
  H       3.446994     -1.373732      2.313756
  H       4.381043     -1.200644      0.803351
  H       3.265089     -2.577995      1.004943
  H      -1.465659     -0.886657      1.436909
  H      -3.487971      0.073462      1.293912
  H      -3.476784      2.362803     -1.147568
  H      -0.734025      3.153223     -2.368597
  H       1.635344      1.025538     -0.871345
  O      -6.464063     -0.516733     -1.796584
  H      -6.412172     -1.406725     -2.173664
  H      -7.287707     -0.511637     -1.287727
  O      -5.229293      1.975396     -1.000506
  H      -5.623454      2.423794     -0.240511
  H      -5.794298      2.192257     -1.754216
  O      -5.437378     -1.107859      0.960215
  H      -5.509643     -2.063183      0.830730
  H      -6.285830     -0.842189      1.339938
  O      -3.587007     -0.710318     -2.092085
  H      -3.794671     -0.388252     -2.979310
  H      -3.530425     -1.670738     -2.179973
34
Coordinates from ORCA-job cu_P0_cplx E -2630.957430422498
  Cu     -4.906568     -0.088270     -0.695052
  C       3.416017     -1.571835      1.176179
  O       2.421231     -0.707914      0.622768
  C       1.175015     -0.891741      1.055151
  O       0.868785     -1.767783      1.839596
  C       0.202696      0.004409      0.398911
  C      -1.139145     -0.120534      0.745949
  C      -2.068586      0.716845      0.163989
  O      -3.407098      0.634785      0.503623
  C      -1.703351      1.676958     -0.777714
  O      -2.546418      2.536892     -1.379986
  C      -0.347931      1.771809     -1.129109
  O       0.045319      2.690458     -2.050711
  C       0.596651      0.950297     -0.546072
  H       3.476328     -1.436660      2.256338
  H       4.352419     -1.277512      0.708886
  H       3.189732     -2.612031      0.940748
  H      -1.470407     -0.855698      1.467961
  H      -3.501632      0.103214      1.310937
  H      -3.484621      2.370167     -1.142760
  H      -0.742751      3.162651     -2.361158
  H       1.631481      1.057181     -0.836104
  O      -6.414331     -0.553130     -1.799455
  H      -6.330210     -1.449020     -2.157752
  H      -7.238142     -0.565625     -1.290106
  O      -5.233656      1.964910     -1.036094
  H      -5.647166      2.416442     -0.288376
  H      -5.792546      2.156223     -1.801010
  O      -5.447124     -1.082110      0.965701
  H      -5.513840     -2.037237      0.830156
  H      -6.312969     -0.818083      1.305584
  O      -3.551586     -0.719305     -2.062988
  H      -3.755590     -0.409627     -2.955401
  H      -3.503978     -1.681619     -2.135683
34
Coordinates from ORCA-job cu_P0_cplx E -2630.958082096054
  Cu     -4.910673     -0.085057     -0.692124
  C       3.428603     -1.546915      1.201225
  O       2.427895     -0.708128      0.620552
  C       1.177373     -0.918787      1.024010
  O       0.878173     -1.776565      1.831106
  C       0.203845     -0.017298      0.377161
  C      -1.134731     -0.141062      0.730463
  C      -2.066520      0.699020      0.157682
  O      -3.400701      0.624814      0.507551
  C      -1.703025      1.662834     -0.780503
  O      -2.547009      2.522931     -1.376222
  C      -0.350651      1.759515     -1.137682
  O       0.035836      2.682316     -2.055528
  C       0.594729      0.933771     -0.563329
  H       3.459089     -1.408196      2.282295
  H       4.369324     -1.232995      0.755852
  H       3.231321     -2.593051      0.965648
  H      -1.457883     -0.880100      1.453751
  H      -3.496230      0.095914      1.315915
  H      -3.486045      2.362187     -1.139739
  H      -0.750078      3.158547     -2.362250
  H       1.629767      1.040447     -0.856923
  O      -6.431744     -0.539708     -1.800046
  H      -6.355762     -1.429667     -2.173702
  H      -7.260022     -0.540851     -1.298466
  O      -5.229063      1.976020     -1.022924
  H      -5.637816      2.427311     -0.272662
  H      -5.783832      2.175109     -1.788491
  O      -5.453829     -1.085955      0.971337
  H      -5.522055     -2.040608      0.835285
  H      -6.314777     -0.817079      1.318983
  O      -3.557205     -0.715633     -2.071312
  H      -3.759835     -0.398143     -2.960931
  H      -3.510447     -1.677429     -2.149036
34
Coordinates from ORCA-job cu_P0_cplx E -2630.958380614614
  Cu     -4.902115     -0.078147     -0.682222
  C       3.430498     -1.541090      1.203232
  O       2.428589     -0.708405      0.615732
  C       1.176978     -0.932518      1.004762
  O       0.880198     -1.788553      1.814644
  C       0.203228     -0.026045      0.366187
  C      -1.133292     -0.150748      0.721951
  C      -2.066394      0.691813      0.156672
  O      -3.398606      0.620718      0.511338
  C      -1.704073      1.660560     -0.775467
  O      -2.548745      2.521738     -1.365475
  C      -0.353946      1.760380     -1.135618
  O       0.027265      2.689242     -2.047341
  C       0.592092      0.931001     -0.568563
  H       3.445628     -1.410948      2.285745
  H       4.373685     -1.214816      0.772210
  H       3.246413     -2.587677      0.958844
  H      -1.451098     -0.894724      1.443410
  H      -3.496208      0.102952      1.326196
  H      -3.488698      2.363023     -1.135361
  H      -0.757123      3.166028     -2.353147
  H       1.627325      1.038788     -0.863764
  O      -6.420672     -0.545427     -1.794206
  H      -6.331846     -1.433463     -2.168606
  H      -7.248080     -0.554702     -1.292113
  O      -5.225256      1.980565     -1.028551
  H      -5.641553      2.432059     -0.282726
  H      -5.773960      2.172252     -1.800054
  O      -5.469451     -1.070670      0.979769
  H      -5.539750     -2.023731      0.835079
  H      -6.337172     -0.797427      1.305969
  O      -3.551974     -0.720096     -2.066064
  H      -3.755783     -0.401743     -2.954867
  H      -3.520081     -1.682685     -2.140647
34
Coordinates from ORCA-job cu_P0_cplx E -2630.958696863799
  Cu     -4.886054     -0.070208     -0.664132
  C       3.432194     -1.542554      1.189672
  O       2.429430     -0.707035      0.607405
  C       1.177422     -0.944278      0.983648
  O       0.881775     -1.811242      1.782656
  C       0.202784     -0.031267      0.356905
  C      -1.132314     -0.161323      0.712275
  C      -2.067368      0.685462      0.158371
  O      -3.398120      0.615898      0.518411
  C      -1.705924      1.664629     -0.762117
  O      -2.551032      2.529072     -1.343056
  C      -0.357211      1.772610     -1.122501
  O       0.018352      2.714062     -2.020849
  C       0.589727      0.937943     -0.566020
  H       3.434706     -1.434443      2.274748
  H       4.377125     -1.200741      0.774932
  H       3.258844     -2.586089      0.924931
  H      -1.442155     -0.914839      1.427717
  H      -3.498540      0.122288      1.347474
  H      -3.493904      2.370855     -1.127415
  H      -0.764423      3.191215     -2.325988
  H       1.625439      1.049996     -0.859994
  O      -6.397648     -0.567766     -1.785862
  H      -6.283951     -1.453588     -2.157806
  H      -7.224843     -0.592042     -1.284762
  O      -5.216609      1.982251     -1.052979
  H      -5.651927      2.437749     -0.320755
  H      -5.750271      2.155438     -1.838930
  O      -5.507301     -1.034227      0.999632
  H      -5.579215     -1.985765      0.846286
  H      -6.388360     -0.751234      1.278040
  O      -3.538007     -0.741645     -2.049870
  H      -3.741872     -0.426142     -2.939461
  H      -3.534727     -1.705534     -2.113660
34
Coordinates from ORCA-job cu_P0_cplx E -2630.958921192340
  Cu     -4.872936     -0.069340     -0.649009
  C       3.433815     -1.550570      1.164449
  O       2.430585     -0.704467      0.598252
  C       1.178409     -0.950810      0.967791
  O       0.882488     -1.836203      1.746516
  C       0.203409     -0.029865      0.354376
  C      -1.132280     -0.167437      0.705326
  C      -2.067494      0.685880      0.162194
  O      -3.399750      0.612186      0.523183
  C      -1.706056      1.677310     -0.744354
  O      -2.550370      2.548006     -1.317188
  C      -0.356748      1.794751     -1.099239
  O       0.018704      2.751160     -1.981685
  C       0.590554      0.954490     -0.552804
  H       3.432291     -1.468628      2.251773
  H       4.379011     -1.195953      0.761196
  H       3.264807     -2.588154      0.874696
  H      -1.439112     -0.932346      1.409576
  H      -3.500560      0.143078      1.366279
  H      -3.496248      2.383362     -1.119854
  H      -0.764103      3.229100     -2.284770
  H       1.626830      1.072698     -0.842267
  O      -6.377853     -0.596958     -1.778776
  H      -6.242965     -1.481887     -2.145301
  H      -7.204245     -0.636403     -1.277709
  O      -5.204087      1.975314     -1.089991
  H      -5.662501      2.438113     -0.376687
  H      -5.719317      2.127731     -1.892256
  O      -5.553268     -0.989060      1.021437
  H      -5.627227     -1.941032      0.871295
  H      -6.445177     -0.693920      1.248363
  O      -3.525094     -0.778662     -2.028752
  H      -3.727217     -0.470793     -2.921391
  H      -3.550273     -1.743188     -2.077720
34
Coordinates from ORCA-job cu_P0_cplx E -2630.959085178243
  Cu     -4.863429     -0.075988     -0.637921
  C       3.436312     -1.561840      1.131183
  O       2.432620     -0.701323      0.587896
  C       1.180486     -0.954378      0.955177
  O       0.883995     -1.860744      1.709153
  C       0.205252     -0.024239      0.356768
  C      -1.132157     -0.170777      0.700656
  C      -2.066313      0.691085      0.168618
  O      -3.401787      0.608331      0.526890
  C      -1.704984      1.696056     -0.722663
  O      -2.547782      2.575099     -1.287080
  C      -0.353706      1.823064     -1.068499
  O       0.025207      2.795274     -1.934077
  C       0.593721      0.976857     -0.532125
  H       3.436999     -1.506901      2.220116
  H       4.380729     -1.196914      0.735263
  H       3.267102     -2.591570      0.814874
  H      -1.440083     -0.948347      1.389667
  H      -3.500375      0.163988      1.383675
  H      -3.496428      2.395219     -1.112774
  H      -0.759245      3.274234     -2.233151
  H       1.630489      1.102251     -0.815296
  O      -6.364564     -0.629555     -1.774361
  H      -6.213442     -1.512641     -2.139153
  H      -7.189788     -0.685397     -1.272867
  O      -5.187892      1.961329     -1.133267
  H      -5.676753      2.431521     -0.445321
  H      -5.676585      2.093600     -1.955495
  O      -5.605715     -0.937409      1.043763
  H      -5.684947     -1.891644      0.910782
  H      -6.503413     -0.625989      1.221759
  O      -3.512921     -0.825904     -2.005247
  H      -3.711744     -0.528553     -2.902304
  H      -3.562835     -1.790292     -2.037690
34
Coordinates from ORCA-job cu_P0_cplx E -2630.959227180202
  Cu     -4.864699     -0.083865     -0.638870
  C       3.438558     -1.564572      1.127979
  O       2.436146     -0.700524      0.587883
  C       1.183259     -0.952998      0.955790
  O       0.885098     -1.864284      1.702805
  C       0.208592     -0.021846      0.357522
  C      -1.130152     -0.171257      0.697344
  C      -2.062520      0.695008      0.168362
  O      -3.400014      0.604667      0.524264
  C      -1.701947      1.703694     -0.718911
  O      -2.543474      2.589450     -1.277275
  C      -0.349332      1.830030     -1.062532
  O       0.033578      2.804658     -1.926421
  C       0.598086      0.982431     -0.527826
  H       3.441492     -1.510614      2.216914
  H       4.383113     -1.200821      0.731205
  H       3.266977     -2.592987      0.808851
  H      -1.442981     -0.951292      1.380786
  H      -3.492485      0.168036      1.385627
  H      -3.492332      2.396542     -1.112104
  H      -0.753116      3.283495     -2.222662
  H       1.634696      1.109492     -0.809203
  O      -6.371424     -0.637115     -1.772411
  H      -6.217968     -1.514942     -2.149386
  H      -7.192435     -0.708611     -1.265537
  O      -5.185423      1.955859     -1.136162
  H      -5.692782      2.421829     -0.458641
  H      -5.658257      2.088117     -1.967836
  O      -5.619252     -0.927387      1.050424
  H      -5.703187     -1.882949      0.929809
  H      -6.515381     -0.608966      1.223961
  O      -3.516487     -0.834595     -2.009297
  H      -3.719268     -0.537261     -2.905666
  H      -3.568657     -1.798915     -2.041838
34
Coordinates from ORCA-job cu_P0_cplx E -2630.959342347267
  Cu     -4.863486     -0.094187     -0.640107
  C       3.437987     -1.569881      1.122820
  O       2.437128     -0.703771      0.583160
  C       1.183438     -0.955369      0.951050
  O       0.883599     -1.867400      1.695999
  C       0.209825     -0.020589      0.355459
  C      -1.129161     -0.169906      0.694958
  C      -2.059812      0.702037      0.171185
  O      -3.398333      0.603503      0.523222
  C      -1.700495      1.715305     -0.711336
  O      -2.540797      2.610008     -1.258334
  C      -0.347328      1.837433     -1.057009
  O       0.038111      2.814013     -1.919490
  C       0.599788      0.986107     -0.526895
  H       3.442411     -1.513788      2.211610
  H       4.383103     -1.208895      0.724782
  H       3.263691     -2.597806      0.803766
  H      -1.448209     -0.952127      1.372631
  H      -3.483447      0.177045      1.390355
  H      -3.488283      2.400330     -1.102904
  H      -0.750971      3.293595     -2.210966
  H       1.635793      1.112853     -0.809667
  O      -6.372591     -0.648937     -1.770224
  H      -6.211479     -1.517275     -2.166286
  H      -7.186530     -0.746343     -1.255817
  O      -5.182494      1.947624     -1.139825
  H      -5.717299      2.406516     -0.478695
  H      -5.631896      2.078136     -1.984938
  O      -5.633281     -0.911876      1.058117
  H      -5.723736     -1.868860      0.954623
  H      -6.527865     -0.585775      1.225097
  O      -3.514423     -0.838663     -2.010266
  H      -3.722480     -0.542336     -2.905955
  H      -3.564454     -1.803212     -2.043171
34
Coordinates from ORCA-job cu_P0_cplx E -2630.959436039416
  Cu     -4.860563     -0.104404     -0.640291
  C       3.435544     -1.576119      1.114542
  O       2.435709     -0.708374      0.575514
  C       1.181784     -0.960048      0.942380
  O       0.881069     -1.872281      1.686440
  C       0.208913     -0.020909      0.351426
  C      -1.129433     -0.169995      0.691772
  C      -2.059535      0.706869      0.174654
  O      -3.397603      0.604669      0.524627
  C      -1.700678      1.725830     -0.701585
  O      -2.540596      2.627950     -1.236242
  C      -0.347855      1.845404     -1.050228
  O       0.037286      2.825549     -1.908853
  C       0.598754      0.989275     -0.526657
  H       3.440513     -1.519479      2.203329
  H       4.381233     -1.217067      0.716108
  H       3.259149     -2.603680      0.795508
  H      -1.452135     -0.955063      1.364533
  H      -3.478497      0.190104      1.397826
  H      -3.486911      2.405176     -1.091398
  H      -0.752528      3.306313     -2.196674
  H       1.634351      1.115740     -0.811395
  O      -6.368583     -0.664314     -1.768291
  H      -6.196075     -1.520202     -2.186346
  H      -7.175336     -0.789201     -1.248354
  O      -5.178998      1.938603     -1.147502
  H      -5.739839      2.392258     -0.504633
  H      -5.604118      2.064339     -2.005938
  O      -5.647525     -0.890458      1.066950
  H      -5.744686     -1.848678      0.982586
  H      -6.540415     -0.555801      1.226123
  O      -3.506949     -0.840809     -2.005359
  H      -3.719003     -0.547836     -2.901312
  H      -3.550421     -1.805857     -2.036312
34
Coordinates from ORCA-job cu_P0_cplx E -2630.959570744772
  Cu     -4.854617     -0.121228     -0.639251
  C       3.430859     -1.586519      1.097065
  O       2.431820     -0.715607      0.561396
  C       1.177949     -0.969360      0.925191
  O       0.876657     -1.883941      1.666013
  C       0.205764     -0.022924      0.343827
  C      -1.131450     -0.173009      0.684959
  C      -2.061513      0.711236      0.180033
  O      -3.398335      0.607534      0.528431
  C      -1.702235      1.740486     -0.683961
  O      -2.542877      2.651793     -1.200221
  C      -0.350436      1.859740     -1.036147
  O       0.032744      2.848671     -1.884383
  C       0.595297      0.995476     -0.524436
  H       3.435745     -1.533515      2.186084
  H       4.377176     -1.227868      0.699850
  H       3.252586     -2.612832      0.775074
  H      -1.457387     -0.963875      1.349753
  H      -3.476871      0.212766      1.410826
  H      -3.487554      2.412040     -1.074596
  H      -0.756782      3.331388     -2.168539
  H       1.630578      1.122887     -0.811124
  O      -6.356729     -0.693652     -1.764141
  H      -6.162058     -1.525573     -2.219354
  H      -7.150104     -0.865546     -1.237004
  O      -5.172603      1.922367     -1.165497
  H      -5.768691      2.370999     -0.551626
  H      -5.562328      2.036372     -2.042248
  O      -5.672407     -0.845905      1.081084
  H      -5.782721     -1.804998      1.029472
  H      -6.561732     -0.494884      1.224750
  O      -3.491799     -0.844226     -1.990853
  H      -3.709446     -0.560589     -2.888576
  H      -3.520476     -1.810199     -2.014906
34
Coordinates from ORCA-job cu_P0_cplx E -2630.959755349291
  Cu     -4.849634     -0.139507     -0.639010
  C       3.427324     -1.594581      1.079672
  O       2.427956     -0.720933      0.548873
  C       1.174445     -0.978579      0.908563
  O       0.873349     -1.897722      1.644020
  C       0.202205     -0.026328      0.336744
  C      -1.134113     -0.179077      0.677526
  C      -2.064977      0.710536      0.183836
  O      -3.400384      0.608556      0.532095
  C      -1.704297      1.749466     -0.667946
  O      -2.547137      2.665748     -1.170347
  C      -0.353564      1.872609     -1.021243
  O       0.027022      2.871457     -1.856983
  C       0.591475      1.001512     -0.520233
  H       3.431496     -1.548293      2.169059
  H       4.373738     -1.233700      0.684832
  H       3.248949     -2.619351      0.752812
  H      -1.460322     -0.975994      1.335326
  H      -3.480673      0.229085      1.420899
  H      -3.490422      2.413980     -1.063175
  H      -0.761111      3.355567     -2.140406
  H       1.626819      1.131255     -0.806895
  O      -6.343996     -0.724724     -1.759957
  H      -6.127416     -1.528233     -2.254383
  H      -7.122655     -0.943510     -1.228154
  O      -5.167590      1.905720     -1.184042
  H      -5.784284      2.354001     -0.590752
  H      -5.534858      2.006876     -2.071935
  O      -5.695198     -0.795008      1.092433
  H      -5.823578     -1.752986      1.075022
  H      -6.578001     -0.423019      1.223585
  O      -3.478140     -0.844220     -1.975635
  H      -3.701142     -0.572168     -2.875704
  H      -3.485262     -1.810926     -1.991551
34
Coordinates from ORCA-job cu_P0_cplx E -2630.959980821621
  Cu     -4.845176     -0.158296     -0.638909
  C       3.426318     -1.598898      1.066010
  O       2.425424     -0.723971      0.540150
  C       1.172630     -0.986371      0.896166
  O       0.873000     -1.910907      1.625998
  C       0.199211     -0.031331      0.332045
  C      -1.136472     -0.187753      0.672413
  C      -2.069035      0.703986      0.186909
  O      -3.403287      0.604866      0.536098
  C      -1.706941      1.749600     -0.656057
  O      -2.553394      2.666158     -1.151295
  C      -0.357523      1.879229     -1.009758
  O       0.019870      2.885679     -1.835435
  C       0.587565      1.004211     -0.516129
  H       3.429525     -1.560238      2.155759
  H       4.372101     -1.233756      0.673762
  H       3.249707     -2.622408      0.734180
  H      -1.459111     -0.989818      1.325983
  H      -3.489082      0.232781      1.427299
  H      -3.496007      2.409142     -1.057346
  H      -0.766294      3.369790     -2.121649
  H       1.623063      1.136394     -0.802161
  O      -6.329421     -0.756523     -1.755525
  H      -6.089806     -1.526321     -2.290492
  H      -7.089858     -1.026439     -1.220842
  O      -5.167870      1.891770     -1.195467
  H      -5.788842      2.342451     -0.608814
  H      -5.530912      1.980899     -2.086113
  O      -5.714919     -0.739977      1.098105
  H      -5.868883     -1.694178      1.110119
  H      -6.587370     -0.341073      1.218970
  O      -3.468058     -0.832222     -1.964745
  H      -3.697347     -0.570025     -2.866242
  H      -3.446782     -1.798946     -1.976039
34
Coordinates from ORCA-job cu_P0_cplx E -2630.960269749105
  Cu     -4.839397     -0.178699     -0.635833
  C       3.429385     -1.602691      1.048539
  O       2.425829     -0.724522      0.533458
  C       1.174563     -0.990236      0.891170
  O       0.878211     -1.922059      1.613756
  C       0.198392     -0.034605      0.334710
  C      -1.136874     -0.195755      0.675967
  C      -2.072189      0.694540      0.194640
  O      -3.406426      0.595389      0.543760
  C      -1.710816      1.743134     -0.644808
  O      -2.562012      2.655634     -1.139965
  C      -0.362606      1.881515     -0.998266
  O       0.011370      2.892604     -1.818180
  C       0.584256      1.006447     -0.508440
  H       3.435962     -1.574583      2.138618
  H       4.373124     -1.232546      0.656167
  H       3.252871     -2.623915      0.709551
  H      -1.451437     -1.002604      1.327491
  H      -3.500469      0.227722      1.435694
  H      -3.505149      2.397995     -1.054023
  H      -0.773798      3.374752     -2.108733
  H       1.619615      1.141184     -0.793976
  O      -6.312151     -0.794772     -1.752979
  H      -6.050528     -1.531748     -2.322021
  H      -7.054948     -1.112587     -1.220228
  O      -5.171867      1.880493     -1.202528
  H      -5.790414      2.334243     -0.616104
  H      -5.538538      1.957780     -2.092408
  O      -5.742810     -0.676337      1.098999
  H      -5.927001     -1.624579      1.136884
  H      -6.602803     -0.246266      1.200388
  O      -3.457551     -0.812718     -1.956992
  H      -3.692133     -0.556366     -2.858917
  H      -3.405638     -1.778335     -1.968445
34
Coordinates from ORCA-job cu_P0_cplx E -2630.960826334415
  Cu     -4.830739     -0.213921     -0.630011
  C       3.440961     -1.604951      1.026224
  O       2.432234     -0.723070      0.528490
  C       1.184455     -0.989637      0.898157
  O       0.895641     -1.928529      1.615556
  C       0.202142     -0.038170      0.348551
  C      -1.132397     -0.205926      0.694397
  C      -2.072962      0.676980      0.211953
  O      -3.408307      0.572696      0.558965
  C      -1.716681      1.723298     -0.632225
  O      -2.575906      2.624979     -1.134991
  C      -0.370538      1.872941     -0.988040
  O      -0.002133      2.883194     -1.810755
  C       0.581477      1.003779     -0.497593
  H       3.459406     -1.586530      2.116351
  H       4.379814     -1.230737      0.626156
  H       3.261177     -2.623979      0.682200
  H      -1.430989     -1.016260      1.348568
  H      -3.515021      0.207008      1.449918
  H      -3.520469      2.369986     -1.050011
  H      -0.788240      3.359228     -2.108237
  H       1.615769      1.140651     -0.785159
  O      -6.289597     -0.856760     -1.753705
  H      -6.003456     -1.545789     -2.368508
  H      -7.011035     -1.235175     -1.232262
  O      -5.185776      1.869876     -1.194332
  H      -5.793853      2.324820     -0.598676
  H      -5.566181      1.937450     -2.078679
  O      -5.789124     -0.582435      1.090141
  H      -6.020278     -1.518494      1.164092
  H      -6.626547     -0.104104      1.158549
  O      -3.448841     -0.763535     -1.961699
  H      -3.695807     -0.507028     -2.860475
  H      -3.342175     -1.724350     -1.985963
34
Coordinates from ORCA-job cu_P0_cplx E -2630.961423032068
  Cu     -4.817450     -0.250488     -0.618695
  C       3.450259     -1.610864      0.999529
  O       2.437795     -0.725017      0.516907
  C       1.192670     -0.994428      0.894008
  O       0.909809     -1.938877      1.606745
  C       0.205650     -0.041595      0.356238
  C      -1.127575     -0.215850      0.706121
  C      -2.072058      0.665901      0.230184
  O      -3.407922      0.553555      0.572793
  C      -1.721781      1.716866     -0.610378
  O      -2.587646      2.615835     -1.107828
  C      -0.377527      1.874529     -0.969422
  O      -0.014549      2.889455     -1.788627
  C       0.578878      1.005960     -0.486064
  H       3.477570     -1.601537      2.089584
  H       4.385733     -1.233279      0.594760
  H       3.267667     -2.627212      0.649017
  H      -1.417912     -1.032176      1.356260
  H      -3.522408      0.200314      1.467714
  H      -3.531309      2.351010     -1.034728
  H      -0.803244      3.360990     -2.086679
  H       1.611782      1.146203     -0.776648
  O      -6.263171     -0.922439     -1.744467
  H      -5.955513     -1.559823     -2.402753
  H      -6.952248     -1.366399     -1.231356
  O      -5.191461      1.850471     -1.196124
  H      -5.810519      2.301917     -0.609536
  H      -5.564825      1.903320     -2.084225
  O      -5.839309     -0.479084      1.075838
  H      -6.114826     -1.398808      1.191929
  H      -6.654700      0.040657      1.095005
  O      -3.445041     -0.735714     -1.960678
  H      -3.710727     -0.484776     -2.855955
  H      -3.298068     -1.691113     -1.991525
34
Coordinates from ORCA-job cu_P0_cplx E -2630.962190662334
  Cu     -4.812715     -0.276977     -0.613777
  C       3.472729     -1.600329      1.008728
  O       2.455177     -0.722803      0.521889
  C       1.211716     -0.994703      0.906554
  O       0.935813     -1.933028      1.629328
  C       0.218409     -0.050630      0.363840
  C      -1.113798     -0.230151      0.717983
  C      -2.062141      0.645116      0.237364
  O      -3.398171      0.521470      0.576850
  C      -1.722793      1.693049     -0.611596
  O      -2.593092      2.587489     -1.111518
  C      -0.379308      1.851515     -0.974979
  O      -0.020124      2.861687     -1.804721
  C       0.583701      0.991538     -0.488081
  H       3.504759     -1.579849      2.098459
  H       4.405387     -1.223084      0.596991
  H       3.293094     -2.619987      0.666492
  H      -1.399112     -1.043974      1.372973
  H      -3.509983      0.162281      1.469618
  H      -3.536338      2.320004     -1.025919
  H      -0.815490      3.326000     -2.099849
  H       1.614765      1.134914     -0.782347
  O      -6.261971     -0.959228     -1.743710
  H      -5.951529     -1.577078     -2.419194
  H      -6.937282     -1.430268     -1.237111
  O      -5.209198      1.850526     -1.160446
  H      -5.825151      2.289555     -0.561209
  H      -5.594751      1.912406     -2.042856
  O      -5.872943     -0.419320      1.056857
  H      -6.176203     -1.326724      1.197059
  H      -6.671730      0.125921      1.041900
  O      -3.467064     -0.679088     -1.997901
  H      -3.758838     -0.410857     -2.880185
  H      -3.289803     -1.627886     -2.060538
34
Coordinates from ORCA-job cu_P0_cplx E -2630.962733740771
  Cu     -4.813287     -0.305889     -0.609462
  C       3.502909     -1.582238      1.021743
  O       2.478460     -0.715841      0.529421
  C       1.236365     -0.997204      0.915638
  O       0.967629     -1.931808      1.644439
  C       0.235963     -0.061553      0.368442
  C      -1.095368     -0.250482      0.721880
  C      -2.048043      0.618978      0.237645
  O      -3.383379      0.482223      0.573744
  C      -1.720819      1.670151     -0.612840
  O      -2.593298      2.563514     -1.110601
  C      -0.376625      1.832323     -0.973427
  O      -0.020792      2.845178     -1.805644
  C       0.593477      0.980674     -0.485305
  H       3.534907     -1.553069      2.111184
  H       4.433284     -1.200540      0.608559
  H       3.332102     -2.604405      0.682789
  H      -1.382124     -1.063781      1.376689
  H      -3.484590      0.119261      1.466420
  H      -3.534620      2.291137     -1.011580
  H      -0.824090      3.303627     -2.091829
  H       1.623198      1.133182     -0.778968
  O      -6.279408     -0.993017     -1.740877
  H      -5.975886     -1.609040     -2.422019
  H      -6.950629     -1.471540     -1.235495
  O      -5.214753      1.846852     -1.133010
  H      -5.829778      2.276890     -0.526288
  H      -5.606575      1.923458     -2.011676
  O      -5.910832     -0.358921      1.038201
  H      -6.250458     -1.249390      1.202967
  H      -6.687219      0.215237      0.983497
  O      -3.502736     -0.643340     -2.042265
  H      -3.824527     -0.355702     -2.908005
  H      -3.312434     -1.587419     -2.137017
34
Coordinates from ORCA-job cu_P0_cplx E -2630.962841455094
  Cu     -4.811482     -0.331461     -0.603871
  C       3.521951     -1.571775      1.026692
  O       2.493180     -0.711694      0.532217
  C       1.253325     -0.995804      0.922992
  O       0.990091     -1.927461      1.657433
  C       0.247867     -0.067040      0.372986
  C      -1.082236     -0.262773      0.726640
  C      -2.040356      0.599466      0.240646
  O      -3.374678      0.454510      0.576837
  C      -1.718736      1.651657     -0.611495
  O      -2.594340      2.540055     -1.110303
  C      -0.375627      1.820041     -0.972528
  O      -0.026740      2.833891     -1.806826
  C       0.599397      0.974980     -0.483223
  H       3.556437     -1.536597      2.115877
  H       4.450112     -1.189102      0.609462
  H       3.354107     -2.596294      0.693370
  H      -1.365993     -1.075993      1.382998
  H      -3.473139      0.086563      1.467587
  H      -3.535433      2.272422     -0.998351
  H      -0.832682      3.289637     -2.088986
  H       1.628139      1.133572     -0.777350
  O      -6.282941     -1.024313     -1.734549
  H      -5.978855     -1.622398     -2.430998
  H      -6.943059     -1.520862     -1.231973
  O      -5.217934      1.840376     -1.111506
  H      -5.824719      2.268115     -0.495168
  H      -5.617593      1.925976     -1.985615
  O      -5.936032     -0.313031      1.015159
  H      -6.321953     -1.183399      1.186291
  H      -6.683097      0.295601      0.932737
  O      -3.533935     -0.616045     -2.066968
  H      -3.882206     -0.319676     -2.919435
  H      -3.324817     -1.553638     -2.183831
34
Coordinates from ORCA-job cu_P0_cplx E -2630.962943715085
  Cu     -4.820109     -0.324153     -0.608540
  C       3.529675     -1.563904      1.045196
  O       2.500490     -0.711103      0.538806
  C       1.261111     -0.990290      0.935088
  O       0.998636     -1.909878      1.684165
  C       0.254843     -0.068052      0.373680
  C      -1.074727     -0.261978      0.728258
  C      -2.034977      0.592778      0.232106
  O      -3.368111      0.443886      0.571482
  C      -1.716953      1.638147     -0.630411
  O      -2.589780      2.522079     -1.138889
  C      -0.372799      1.802741     -0.990680
  O      -0.026381      2.809800     -1.835877
  C       0.604458      0.965373     -0.492997
  H       3.564294     -1.512499      2.133702
  H       4.458131     -1.187306      0.623018
  H       3.362230     -2.592617      0.724921
  H      -1.364511     -1.067663      1.391482
  H      -3.448638      0.063655      1.459106
  H      -3.531110      2.269868     -0.996226
  H      -0.834965      3.266630     -2.109504
  H       1.632583      1.125596     -0.788324
  O      -6.301658     -1.009230     -1.745960
  H      -6.004170     -1.650849     -2.405878
  H      -6.988547     -1.460892     -1.236313
  O      -5.220047      1.850280     -1.090585
  H      -5.817259      2.271399     -0.460220
  H      -5.630708      1.959336     -1.957110
  O      -5.939258     -0.354178      1.018979
  H      -6.332535     -1.226588      1.162512
  H      -6.684155      0.258319      0.942612
  O      -3.533316     -0.587448     -2.083008
  H      -3.880963     -0.269291     -2.927660
  H      -3.334750     -1.524463     -2.219984
34
Coordinates from ORCA-job cu_P0_cplx E -2630.963056333723
  Cu     -4.822878     -0.325012     -0.607434
  C       3.525611     -1.566815      1.039716
  O       2.497096     -0.712861      0.533695
  C       1.257807     -0.990965      0.928789
  O       0.994157     -1.912179      1.676144
  C       0.252666     -0.066896      0.369546
  C      -1.077001     -0.261376      0.721730
  C      -2.038203      0.595096      0.230248
  O      -3.370606      0.447895      0.573779
  C      -1.716305      1.643529     -0.626572
  O      -2.589395      2.527409     -1.133067
  C      -0.372366      1.811361     -0.985993
  O      -0.027697      2.822226     -1.825310
  C       0.603691      0.971044     -0.491641
  H       3.560049     -1.516551      2.128323
  H       4.454172     -1.190820      0.617392
  H       3.356843     -2.595647      0.720501
  H      -1.367165     -1.069366      1.382253
  H      -3.449102      0.070341      1.462645
  H      -3.530513      2.274807     -0.994837
  H      -0.833875      3.282707     -2.098344
  H       1.632314      1.132356     -0.785313
  O      -6.300563     -1.010688     -1.740888
  H      -5.998679     -1.641872     -2.408549
  H      -6.979998     -1.471286     -1.229659
  O      -5.213358      1.844966     -1.100242
  H      -5.815618      2.269732     -0.477253
  H      -5.612486      1.953565     -1.972159
  O      -5.940100     -0.358304      1.020424
  H      -6.349601     -1.224786      1.155617
  H      -6.674376      0.268171      0.952385
  O      -3.530578     -0.601685     -2.071031
  H      -3.877524     -0.291027     -2.918756
  H      -3.330396     -1.539563     -2.199190
34
Coordinates from ORCA-job cu_P0_cplx E -2630.963138676612
  Cu     -4.829516     -0.328953     -0.606466
  C       3.528454     -1.563788      1.039078
  O       2.498512     -0.712787      0.530874
  C       1.260091     -0.990043      0.927173
  O       0.997454     -1.910603      1.676550
  C       0.254339     -0.068232      0.367180
  C      -1.075330     -0.265087      0.716253
  C      -2.039728      0.588773      0.225809
  O      -3.370562      0.442179      0.576084
  C      -1.715537      1.637714     -0.628580
  O      -2.590103      2.516194     -1.140536
  C      -0.371454      1.812606     -0.984600
  O      -0.030747      2.826337     -1.819708
  C       0.605196      0.973619     -0.490126
  H       3.563314     -1.510645      2.127582
  H       4.455928     -1.187863      0.614472
  H       3.360349     -2.594348      0.725076
  H      -1.364346     -1.074069      1.376453
  H      -3.443021      0.058064      1.462633
  H      -3.532029      2.271401     -0.994944
  H      -0.835032      3.290746     -2.089958
  H       1.634276      1.138625     -0.780693
  O      -6.302057     -1.016365     -1.737803
  H      -5.993490     -1.645224     -2.404337
  H      -6.977544     -1.478422     -1.223321
  O      -5.208373      1.839958     -1.101062
  H      -5.806206      2.268504     -0.476438
  H      -5.602969      1.957924     -1.973714
  O      -5.946630     -0.364946      1.015660
  H      -6.399775     -1.213070      1.126794
  H      -6.648463      0.299633      0.962974
  O      -3.537330     -0.600860     -2.065592
  H      -3.890797     -0.292161     -2.911414
  H      -3.330850     -1.537305     -2.194406
34
Coordinates from ORCA-job cu_P0_cplx E -2630.963171593373
  Cu     -4.831691     -0.327897     -0.607269
  C       3.528045     -1.563931      1.038328
  O       2.498200     -0.712677      0.530487
  C       1.259694     -0.989812      0.927012
  O       0.997099     -1.910799      1.675841
  C       0.254033     -0.067757      0.367451
  C      -1.075759     -0.264883      0.715854
  C      -2.040068      0.589254      0.225342
  O      -3.370644      0.442600      0.576207
  C      -1.715980      1.638295     -0.628802
  O      -2.590527      2.516328     -1.142177
  C      -0.371503      1.813846     -0.983527
  O      -0.030269      2.828001     -1.817972
  C       0.605134      0.974908     -0.488934
  H       3.563120     -1.510947      2.126843
  H       4.455456     -1.188055      0.613549
  H       3.359685     -2.594418      0.724206
  H      -1.364512     -1.074313      1.375610
  H      -3.441605      0.055711      1.461714
  H      -3.532785      2.271582     -0.996380
  H      -0.834583      3.293208     -2.087034
  H       1.634373      1.140204     -0.778629
  O      -6.302250     -1.017747     -1.739984
  H      -5.992454     -1.650736     -2.402101
  H      -6.980406     -1.476055     -1.225615
  O      -5.207050      1.839195     -1.103636
  H      -5.805739      2.268287     -0.480156
  H      -5.598302      1.960454     -1.977388
  O      -5.946024     -0.369639      1.017476
  H      -6.407342     -1.213477      1.124726
  H      -6.639529      0.304408      0.974768
  O      -3.537500     -0.602186     -2.065015
  H      -3.891587     -0.294709     -2.911061
  H      -3.330707     -1.538735     -2.192789
34
Coordinates from ORCA-job cu_P0_cplx E -2630.963192525663
  Cu     -4.836247     -0.324402     -0.608468
  C       3.529036     -1.562146      1.038906
  O       2.498995     -0.711238      0.531205
  C       1.260118     -0.989822      0.927339
  O       0.998351     -1.911768      1.675004
  C       0.253920     -0.068136      0.368277
  C      -1.076083     -0.266572      0.716024
  C      -2.039978      0.588108      0.225227
  O      -3.370322      0.440718      0.576592
  C      -1.717673      1.636942     -0.629600
  O      -2.592242      2.515297     -1.144406
  C      -0.372706      1.813126     -0.982825
  O      -0.030261      2.827241     -1.817728
  C       0.604639      0.975163     -0.487750
  H       3.563326     -1.510111      2.127495
  H       4.456433     -1.184942      0.615227
  H       3.361917     -2.592343      0.723141
  H      -1.362763     -1.076922      1.375370
  H      -3.439246      0.044393      1.458171
  H      -3.535187      2.269600     -0.998706
  H      -0.835692      3.292711     -2.084229
  H       1.633985      1.140781     -0.776378
  O      -6.299790     -1.022515     -1.746803
  H      -5.986052     -1.667671     -2.395405
  H      -6.986366     -1.470667     -1.234351
  O      -5.206741      1.838376     -1.106800
  H      -5.806311      2.267178     -0.483816
  H      -5.593050      1.968248     -1.981623
  O      -5.944233     -0.377117      1.020937
  H      -6.429309     -1.208358      1.115244
  H      -6.614373      0.321111      1.003231
  O      -3.540239     -0.598648     -2.066154
  H      -3.897708     -0.293143     -2.911592
  H      -3.332127     -1.534966     -2.193809
34
Coordinates from ORCA-job cu_P0_cplx E -2630.963177681206
  Cu     -4.836772     -0.322598     -0.607848
  C       3.528749     -1.562557      1.037740
  O       2.498820     -0.711051      0.530846
  C       1.259887     -0.989825      0.927238
  O       0.998341     -1.912176      1.674354
  C       0.253458     -0.067937      0.368730
  C      -1.076364     -0.266212      0.717891
  C      -2.040131      0.588499      0.227264
  O      -3.370563      0.440523      0.578147
  C      -1.718772      1.637189     -0.628239
  O      -2.593354      2.516448     -1.141738
  C      -0.374094      1.812605     -0.982786
  O      -0.031713      2.826257     -1.818713
  C       0.603644      0.974682     -0.488229
  H       3.563076     -1.511561      2.126368
  H       4.456254     -1.185053      0.614525
  H       3.361644     -2.592373      0.720737
  H      -1.361437     -1.076815      1.377558
  H      -3.440135      0.040563      1.458023
  H      -3.536309      2.269203     -0.998110
  H      -0.837713      3.291249     -2.084607
  H       1.632845      1.139604     -0.777634
  O      -6.294971     -1.027197     -1.750224
  H      -5.978657     -1.677204     -2.392711
  H      -6.986417     -1.470717     -1.240260
  O      -5.207959      1.837406     -1.108390
  H      -5.808607      2.265471     -0.485888
  H      -5.592355      1.969627     -1.983719
  O      -5.943629     -0.377928      1.022148
  H      -6.440611     -1.202968      1.108394
  H      -6.603413      0.330253      1.014625
  O      -3.539508     -0.595143     -2.065392
  H      -3.898180     -0.291676     -2.911086
  H      -3.329029     -1.531081     -2.192069
34
Coordinates from ORCA-job cu_P0_cplx E -2630.963191080410
  Cu     -4.837442     -0.320719     -0.606496
  C       3.528334     -1.562656      1.037180
  O       2.498597     -0.710879      0.530250
  C       1.259414     -0.990976      0.925016
  O       0.997595     -1.914425      1.670593
  C       0.252935     -0.068556      0.367110
  C      -1.076652     -0.266869      0.717713
  C      -2.040253      0.588593      0.228860
  O      -3.370710      0.440221      0.579584
  C      -1.719442      1.638640     -0.625404
  O      -2.593908      2.520896     -1.133653
  C      -0.375430      1.812804     -0.982364
  O      -0.033615      2.827066     -1.818169
  C       0.602625      0.973962     -0.489799
  H       3.561337     -1.513223      2.125904
  H       4.456287     -1.184146      0.615827
  H       3.362258     -2.592028      0.718210
  H      -1.360341     -1.078196      1.377017
  H      -3.441060      0.036745      1.457772
  H      -3.536400      2.269588     -0.996172
  H      -0.840226      3.291149     -2.083838
  H       1.631629      1.138274     -0.780312
  O      -6.288544     -1.034632     -1.753137
  H      -5.969519     -1.690178     -2.388526
  H      -6.986661     -1.471828     -1.246859
  O      -5.209782      1.834525     -1.111340
  H      -5.812571      2.261644     -0.490189
  H      -5.591245      1.968692     -1.987680
  O      -5.942527     -0.377341      1.024261
  H      -6.458258     -1.192286      1.096929
  H      -6.587329      0.344599      1.031111
  O      -3.539093     -0.591569     -2.064049
  H      -3.899501     -0.292461     -2.910542
  H      -3.324477     -1.526926     -2.187861
34
Coordinates from ORCA-job cu_P0_cplx E -2630.963191656343
  Cu     -4.838160     -0.319270     -0.606117
  C       3.528521     -1.562188      1.037576
  O       2.498652     -0.710562      0.530574
  C       1.259596     -0.990940      0.925069
  O       0.997720     -1.914488      1.670559
  C       0.252974     -0.068888      0.366742
  C      -1.076401     -0.266895      0.718696
  C      -2.040396      0.587956      0.230081
  O      -3.370827      0.439599      0.580888
  C      -1.719619      1.638020     -0.624378
  O      -2.594343      2.520846     -1.130773
  C      -0.376239      1.811374     -0.983495
  O      -0.035466      2.825031     -1.820416
  C       0.602153      0.972566     -0.491430
  H       3.561169     -1.513109      2.126318
  H       4.456522     -1.183285      0.616670
  H       3.362904     -2.591525      0.718269
  H      -1.359153     -1.077959      1.378784
  H      -3.441900      0.032017      1.457125
  H      -3.536387      2.268534     -0.995749
  H      -0.842219      3.288149     -2.087042
  H       1.630886      1.136263     -0.783364
  O      -6.283667     -1.039715     -1.756682
  H      -5.964061     -1.704214     -2.382258
  H      -6.991556     -1.464850     -1.253911
  O      -5.212420      1.832692     -1.111354
  H      -5.812434      2.259639     -0.487401
  H      -5.596458      1.968942     -1.986208
  O      -5.941325     -0.380228      1.024536
  H      -6.473037     -1.186247      1.082439
  H      -6.573187      0.352864      1.044880
  O      -3.538386     -0.584978     -2.063955
  H      -3.899235     -0.288496     -2.911143
  H      -3.318200     -1.519145     -2.186585
34
Coordinates from ORCA-job cu_P0_cplx E -2630.962803151778
  Cu     -4.833312     -0.327442     -0.607113
  C       3.521028     -1.574056      1.024319
  O       2.493087     -0.717182      0.521910
  C       1.254618     -0.993417      0.918563
  O       0.991752     -1.917439      1.662938
  C       0.249182     -0.067189      0.365273
  C      -1.079622     -0.264434      0.718608
  C      -2.044236      0.592127      0.234807
  O      -3.374238      0.443171      0.585668
  C      -1.722257      1.644220     -0.616420
  O      -2.598575      2.527739     -1.118002
  C      -0.379513      1.818757     -0.977728
  O      -0.040767      2.834477     -1.811424
  C       0.598406      0.976942     -0.489936
  H       3.557017     -1.527725      2.112870
  H       4.449068     -1.198621      0.601451
  H       3.349833     -2.601908      0.704608
  H      -1.362500     -1.077580      1.376378
  H      -3.443993      0.043054      1.464949
  H      -3.540434      2.272353     -0.989875
  H      -0.846441      3.298098     -2.079014
  H       1.626767      1.140030     -0.783766
  O      -6.270779     -1.066385     -1.754780
  H      -5.930024     -1.717023     -2.399773
  H      -6.971981     -1.522972     -1.247208
  O      -5.215233      1.823367     -1.123996
  H      -5.825426      2.248907     -0.509186
  H      -5.591220      1.949986     -2.003462
  O      -5.953633     -0.353822      1.034264
  H      -6.498866     -1.160690      1.102397
  H      -6.579280      0.394836      1.050103
  O      -3.516915     -0.569956     -2.051072
  H      -3.877677     -0.279501     -2.900584
  H      -3.277810     -1.503216     -2.168819
34
Coordinates from ORCA-job cu_P0_cplx E -2630.963201797048
  Cu     -4.832334     -0.325696     -0.608118
  C       3.515082     -1.579340      1.020661
  O       2.488310     -0.719555      0.521159
  C       1.250187     -0.992148      0.920670
  O       0.986665     -1.915742      1.664911
  C       0.245603     -0.064554      0.368296
  C      -1.082991     -0.259598      0.723079
  C      -2.047312      0.596923      0.238485
  O      -3.377172      0.448988      0.588280
  C      -1.724868      1.647312     -0.614404
  O      -2.602002      2.529185     -1.117905
  C      -0.382164      1.820560     -0.976596
  O      -0.042996      2.833751     -1.812004
  C       0.595196      0.978134     -0.488309
  H       3.554429     -1.533546      2.108919
  H       4.442825     -1.206704      0.595341
  H       3.339612     -2.606318      0.701693
  H      -1.365110     -1.072191      1.381789
  H      -3.449632      0.045945      1.465498
  H      -3.543468      2.274064     -0.991131
  H      -0.847938      3.297055     -2.082079
  H       1.623357      1.139006     -0.783386
  O      -6.266503     -1.073406     -1.753914
  H      -5.936132     -1.727745     -2.383746
  H      -6.966016     -1.511131     -1.257572
  O      -5.220616      1.822182     -1.127750
  H      -5.826972      2.249083     -0.511081
  H      -5.600989      1.946029     -2.004741
  O      -5.936979     -0.356735      1.027845
  H      -6.471177     -1.159021      1.094810
  H      -6.561060      0.382962      1.050841
  O      -3.509982     -0.564727     -2.048981
  H      -3.868402     -0.278844     -2.901206
  H      -3.262426     -1.496671     -2.162412
34
Coordinates from ORCA-job cu_P0_cplx E -2630.962296216721
  Cu     -4.838024     -0.315104     -0.607351
  C       3.523431     -1.563563      1.051040
  O       2.498161     -0.709037      0.539650
  C       1.254556     -0.999042      0.918377
  O       0.985952     -1.930391      1.655313
  C       0.251401     -0.072525      0.360192
  C      -1.078232     -0.269846      0.709544
  C      -2.039776      0.591007      0.225414
  O      -3.369165      0.442112      0.576249
  C      -1.718368      1.644867     -0.623843
  O      -2.592612      2.533405     -1.123104
  C      -0.374506      1.814873     -0.982969
  O      -0.031138      2.829811     -1.817471
  C       0.602556      0.972374     -0.493427
  H       3.540123     -1.526882      2.144006
  H       4.457928     -1.174198      0.646174
  H       3.363891     -2.592711      0.715000
  H      -1.367029     -1.081983      1.365797
  H      -3.437062      0.033998      1.453473
  H      -3.534279      2.271743     -0.996812
  H      -0.837863      3.292120     -2.085724
  H       1.631496      1.135615     -0.785571
  O      -6.288177     -1.057864     -1.734824
  H      -5.961375     -1.715995     -2.361044
  H      -6.990735     -1.510832     -1.211014
  O      -5.220651      1.830240     -1.112807
  H      -5.826414      2.253122     -0.491847
  H      -5.601387      1.966129     -1.989401
  O      -5.909270     -0.375846      1.012057
  H      -6.445783     -1.164566      1.054173
  H      -6.521349      0.353801      1.045183
  O      -3.553075     -0.567074     -2.079371
  H      -3.928632     -0.275637     -2.923683
  H      -3.328571     -1.494616     -2.204432
34
Coordinates from ORCA-job cu_P0_cplx E -2630.962754522426
  Cu     -4.844561     -0.323179     -0.606826
  C       3.546487     -1.540303      1.051995
  O       2.511678     -0.698709      0.539402
  C       1.268842     -1.006061      0.912557
  O       1.006456     -1.944208      1.645597
  C       0.259786     -0.085375      0.355919
  C      -1.071106     -0.294962      0.697961
  C      -2.035499      0.566238      0.217475
  O      -3.364618      0.416563      0.572268
  C      -1.714203      1.630206     -0.623162
  O      -2.587161      2.521020     -1.121597
  C      -0.369397      1.812326     -0.974309
  O      -0.026991      2.841219     -1.796634
  C       0.609584      0.970762     -0.487650
  H       3.557710     -1.504509      2.145080
  H       4.477840     -1.137220      0.650158
  H       3.402691     -2.571912      0.713520
  H      -1.359179     -1.112917      1.349220
  H      -3.429424      0.009205      1.451013
  H      -3.530005      2.258227     -0.992623
  H      -0.834761      3.304620     -2.060120
  H       1.639780      1.145584     -0.772386
  O      -6.301893     -1.051476     -1.733945
  H      -5.990614     -1.719635     -2.345345
  H      -7.001080     -1.469171     -1.219814
  O      -5.205227      1.828348     -1.119138
  H      -5.812763      2.256892     -0.499592
  H      -5.580132      1.967513     -2.000790
  O      -5.950302     -0.356973      1.016676
  H      -6.529710     -1.146311      1.058740
  H      -6.552032      0.408468      1.035200
  O      -3.569332     -0.591638     -2.080483
  H      -3.942674     -0.295290     -2.921865
  H      -3.362164     -1.519835     -2.209557
34
Coordinates from ORCA-job cu_P0_cplx E -2630.961490460158
  Cu     -4.829114     -0.314006     -0.606728
  C       3.521809     -1.581887      0.999568
  O       2.484001     -0.738189      0.496851
  C       1.258709     -0.980858      0.928746
  O       1.011824     -1.875201      1.694991
  C       0.246457     -0.063775      0.376372
  C      -1.080097     -0.255152      0.738557
  C      -2.047593      0.598015      0.255990
  O      -3.380525      0.443306      0.603492
  C      -1.729913      1.644975     -0.597468
  O      -2.607717      2.530409     -1.095229
  C      -0.390512      1.810332     -0.969262
  O      -0.054936      2.818238     -1.807360
  C       0.588947      0.967508     -0.487572
  H       3.600557     -1.486250      2.065376
  H       4.429319     -1.250181      0.535839
  H       3.334765     -2.603854      0.742502
  H      -1.356669     -1.063529      1.398670
  H      -3.454301      0.039352      1.480087
  H      -3.545124      2.282278     -0.966423
  H      -0.861947      3.285070     -2.070373
  H       1.613810      1.124154     -0.787852
  O      -6.249553     -1.069738     -1.773592
  H      -5.902356     -1.738048     -2.403634
  H      -6.963514     -1.488715     -1.297263
  O      -5.211624      1.826036     -1.130150
  H      -5.834963      2.247608     -0.521981
  H      -5.573376      1.956218     -2.014833
  O      -5.965739     -0.363611      1.027648
  H      -6.508549     -1.151910      1.077877
  H      -6.584442      0.392497      1.047823
  O      -3.505440     -0.574184     -2.044009
  H      -3.862349     -0.288870     -2.894767
  H      -3.273824     -1.510533     -2.154951
34
Coordinates from ORCA-job cu_P0_cplx E -2630.963093946420
  Cu     -4.839616     -0.316823     -0.612034
  C       3.525895     -1.567265      1.030455
  O       2.497805     -0.708896      0.530159
  C       1.257859     -0.992818      0.920582
  O       0.994538     -1.921570      1.660615
  C       0.251532     -0.067079      0.366701
  C      -1.077903     -0.267777      0.717367
  C      -2.042248      0.589652      0.234984
  O      -3.371989      0.437428      0.584474
  C      -1.721010      1.644479     -0.613789
  O      -2.596625      2.528938     -1.113136
  C      -0.377653      1.819503     -0.974084
  O      -0.038338      2.834533     -1.808347
  C       0.601007      0.979110     -0.486037
  H       3.555527     -1.531280      2.123337
  H       4.456401     -1.182550      0.615161
  H       3.359632     -2.595859      0.697273
  H      -1.361739     -1.082808      1.372969
  H      -3.441551      0.030038      1.458822
  H      -3.537215      2.267559     -0.992932
  H      -0.845884      3.294712     -2.077367
  H       1.629464      1.143676     -0.778982
  O      -6.281234     -1.064521     -1.751762
  H      -5.952027     -1.732105     -2.378125
  H      -6.991947     -1.487109     -1.253448
  O      -5.213447      1.827745     -1.127916
  H      -5.818229      2.251367     -0.515149
  H      -5.587248      1.960622     -2.003684
  O      -5.945690     -0.362198      1.030181
  H      -6.490166     -1.156463      1.087662
  H      -6.556240      0.383877      1.070684
  O      -3.532229     -0.577874     -2.067364
  H      -3.895373     -0.293168     -2.918938
  H      -3.298036     -1.517570     -2.181387
34
Coordinates from ORCA-job cu_P0_cplx E -2630.962918943651
  Cu     -4.832965     -0.318528     -0.611894
  C       3.526934     -1.570663      1.024359
  O       2.495560     -0.718147      0.521823
  C       1.258527     -0.995207      0.922859
  O       0.998193     -1.919755      1.668818
  C       0.251615     -0.069457      0.369984
  C      -1.077604     -0.270913      0.718785
  C      -2.042208      0.587355      0.235227
  O      -3.373181      0.432467      0.582514
  C      -1.720412      1.645810     -0.610216
  O      -2.594593      2.533112     -1.112366
  C      -0.377324      1.823602     -0.966922
  O      -0.036576      2.846179     -1.795298
  C       0.600744      0.980091     -0.480691
  H       3.570002     -1.515565      2.110646
  H       4.451963     -1.199229      0.593930
  H       3.355126     -2.599610      0.713816
  H      -1.363126     -1.087941      1.372262
  H      -3.444107      0.024083      1.460006
  H      -3.538575      2.274817     -0.986802
  H      -0.842100      3.309951     -2.061813
  H       1.629788      1.147705     -0.771419
  O      -6.280030     -1.073912     -1.741156
  H      -5.959879     -1.736706     -2.348781
  H      -6.985517     -1.505601     -1.227085
  O      -5.214105      1.826279     -1.135339
  H      -5.832457      2.255478     -0.517645
  H      -5.588303      1.952470     -2.022227
  O      -5.936167     -0.354686      1.014790
  H      -6.493805     -1.149257      1.061860
  H      -6.544918      0.396500      1.034496
  O      -3.535223     -0.581020     -2.068682
  H      -3.898912     -0.295265     -2.917339
  H      -3.310339     -1.506931     -2.183556
34
Coordinates from ORCA-job cu_P0_cplx E -2630.963333060178
  Cu     -4.840861     -0.316067     -0.614529
  C       3.529812     -1.561278      1.034445
  O       2.497743     -0.713154      0.527415
  C       1.259183     -0.995579      0.922593
  O       0.998609     -1.919013      1.668736
  C       0.251242     -0.074365      0.366216
  C      -1.077807     -0.274046      0.716860
  C      -2.042723      0.583535      0.233665
  O      -3.372493      0.431163      0.584116
  C      -1.722304      1.637219     -0.615385
  O      -2.597669      2.524615     -1.115605
  C      -0.379489      1.810728     -0.975893
  O      -0.039421      2.827421     -1.808490
  C       0.599307      0.969786     -0.488168
  H       3.563939     -1.508840      2.122614
  H       4.456860     -1.182002      0.610768
  H       3.365132     -2.591761      0.718641
  H      -1.362123     -1.086194      1.373761
  H      -3.440706      0.016366      1.457391
  H      -3.538468      2.268174     -0.988150
  H      -0.846402      3.290299     -2.075327
  H       1.627470      1.134797     -0.780792
  O      -6.282248     -1.070142     -1.744940
  H      -5.954281     -1.736909     -2.363789
  H      -6.989502     -1.492902     -1.240106
  O      -5.216460      1.827513     -1.122370
  H      -5.822799      2.250702     -0.502840
  H      -5.592736      1.965368     -1.999478
  O      -5.933841     -0.365615      1.015768
  H      -6.505712     -1.147087      1.054567
  H      -6.526804      0.399403      1.062622
  O      -3.539146     -0.563290     -2.073711
  H      -3.907810     -0.277515     -2.921600
  H      -3.301467     -1.493823     -2.192060
34
Coordinates from ORCA-job cu_P0_cplx E -2630.963217138981
  Cu     -4.833059     -0.321791     -0.610575
  C       3.519425     -1.580973      1.014159
  O       2.492428     -0.714992      0.521890
  C       1.253928     -0.997645      0.913234
  O       0.990369     -1.931239      1.648126
  C       0.249009     -0.063894      0.368255
  C      -1.079989     -0.264831      0.718201
  C      -2.045096      0.594685      0.239866
  O      -3.375208      0.440016      0.588244
  C      -1.722296      1.654887     -0.602011
  O      -2.597497      2.541336     -1.098371
  C      -0.378698      1.834361     -0.958957
  O      -0.039500      2.856998     -1.784625
  C       0.599094      0.989156     -0.476753
  H       3.552639     -1.552823      2.106759
  H       4.448369     -1.196226      0.598937
  H       3.349568     -2.606647      0.675492
  H      -1.365695     -1.084845      1.368051
  H      -3.444227      0.033408      1.465608
  H      -3.539666      2.275131     -0.986677
  H      -0.845784      3.319010     -2.052985
  H       1.627558      1.155673     -0.768700
  O      -6.265185     -1.105243     -1.743217
  H      -5.926415     -1.775752     -2.356409
  H      -6.974242     -1.532164     -1.246460
  O      -5.216832      1.816721     -1.150109
  H      -5.837718      2.245304     -0.543770
  H      -5.581659      1.939826     -2.038093
  O      -5.943821     -0.335033      1.029763
  H      -6.509564     -1.110796      1.078232
  H      -6.536768      0.432154      1.059975
  O      -3.526935     -0.576065     -2.057860
  H      -3.895900     -0.303761     -2.909316
  H      -3.284611     -1.506441     -2.162959
34
Coordinates from ORCA-job cu_P0_cplx E -2630.963347805786
  Cu     -4.838907     -0.320576     -0.615367
  C       3.524459     -1.572688      1.022071
  O       2.494679     -0.718028      0.520227
  C       1.256537     -0.997646      0.915797
  O       0.994847     -1.923745      1.657501
  C       0.249894     -0.070474      0.365658
  C      -1.079579     -0.273818      0.714879
  C      -2.044614      0.585675      0.236354
  O      -3.374217      0.432050      0.585295
  C      -1.722735      1.647288     -0.604784
  O      -2.598485      2.536068     -1.098672
  C      -0.379231      1.826862     -0.962490
  O      -0.039333      2.850754     -1.787696
  C       0.599269      0.982287     -0.480383
  H       3.562737     -1.523735      2.109614
  H       4.451203     -1.198075      0.597249
  H       3.353698     -2.600224      0.704792
  H      -1.364317     -1.093186      1.365619
  H      -3.443941      0.020204      1.458917
  H      -3.539781      2.268613     -0.988271
  H      -0.846272      3.312063     -2.055949
  H       1.628088      1.150677     -0.771492
  O      -6.272887     -1.100568     -1.742289
  H      -5.939289     -1.771116     -2.352366
  H      -6.981863     -1.525657     -1.239843
  O      -5.217019      1.817629     -1.142966
  H      -5.828156      2.243105     -0.532100
  H      -5.586869      1.947438     -2.023891
  O      -5.940821     -0.340302      1.022021
  H      -6.527273     -1.109996      1.060343
  H      -6.514808      0.435035      1.074358
  O      -3.532663     -0.564274     -2.068330
  H      -3.902425     -0.290340     -2.919179
  H      -3.283903     -1.493793     -2.177683
34
Coordinates from ORCA-job cu_P0_cplx E -2630.963343903467
  Cu     -4.842430     -0.316282     -0.616073
  C       3.532950     -1.559588      1.029020
  O       2.498893     -0.710215      0.527506
  C       1.260725     -0.996761      0.922353
  O       1.001970     -1.924333      1.663820
  C       0.250918     -0.076459      0.368466
  C      -1.077672     -0.277360      0.719638
  C      -2.043701      0.580741      0.239303
  O      -3.373700      0.425748      0.589080
  C      -1.724919      1.635122     -0.607871
  O      -2.601197      2.524145     -1.104564
  C      -0.383271      1.807569     -0.970726
  O      -0.044910      2.823239     -1.803295
  C       0.596801      0.967184     -0.485246
  H       3.565361     -1.515422      2.118802
  H       4.459698     -1.173133      0.608520
  H       3.371746     -2.589342      0.704188
  H      -1.360466     -1.089830      1.375149
  H      -3.441963      0.005365      1.459574
  H      -3.539941      2.267953     -0.980347
  H      -0.852746      3.285616     -2.069362
  H       1.623925      1.131821     -0.779446
  O      -6.275171     -1.092535     -1.742512
  H      -5.941130     -1.763282     -2.352627
  H      -6.984530     -1.513642     -1.238299
  O      -5.216929      1.822932     -1.127596
  H      -5.831792      2.244478     -0.511677
  H      -5.583252      1.964413     -2.009236
  O      -5.937678     -0.352607      1.009173
  H      -6.546135     -1.107053      1.029229
  H      -6.494831      0.437510      1.072962
  O      -3.541439     -0.550154     -2.075733
  H      -3.916471     -0.271813     -2.922960
  H      -3.290691     -1.476520     -2.192267
34
Coordinates from ORCA-job cu_P0_cplx E -2630.963420067554
  Cu     -4.843543     -0.319285     -0.616373
  C       3.529854     -1.566009      1.024751
  O       2.497786     -0.713945      0.522967
  C       1.259477     -0.999890      0.915426
  O       0.999270     -1.929464      1.654429
  C       0.251198     -0.074203      0.365783
  C      -1.077859     -0.278422      0.714726
  C      -2.043933      0.580950      0.237340
  O      -3.373354      0.425110      0.587216
  C      -1.723511      1.642605     -0.602993
  O      -2.599349      2.532545     -1.095893
  C      -0.380646      1.821672     -0.961288
  O      -0.041761      2.845722     -1.786031
  C       0.598914      0.977907     -0.479975
  H       3.564150     -1.520876      2.113472
  H       4.456464     -1.184280      0.603689
  H       3.365059     -2.594340      0.702244
  H      -1.361485     -1.097022      1.365300
  H      -3.440863      0.003651      1.457292
  H      -3.539992      2.265743     -0.984881
  H      -0.849416      3.307726     -2.051828
  H       1.627125      1.146608     -0.771219
  O      -6.271628     -1.112814     -1.740503
  H      -5.933708     -1.790250     -2.341634
  H      -6.984992     -1.530039     -1.238777
  O      -5.217136      1.816051     -1.141547
  H      -5.829985      2.240817     -0.529503
  H      -5.581889      1.955175     -2.024091
  O      -5.940360     -0.340426      1.014844
  H      -6.563328     -1.080812      1.030666
  H      -6.478667      0.461738      1.088177
  O      -3.544405     -0.555681     -2.075356
  H      -3.923468     -0.286827     -2.924319
  H      -3.287994     -1.481927     -2.185166
34
Coordinates from ORCA-job cu_P0_cplx E -2630.963453907209
  Cu     -4.842989     -0.321677     -0.617325
  C       3.528826     -1.570409      1.013234
  O       2.496339     -0.714222      0.518727
  C       1.258838     -1.000421      0.912523
  O       0.999619     -1.933162      1.647013
  C       0.249930     -0.072666      0.367645
  C      -1.079041     -0.278919      0.716404
  C      -2.045779      0.581489      0.242521
  O      -3.375312      0.424213      0.591115
  C      -1.725404      1.646384     -0.593974
  O      -2.601710      2.537466     -1.083089
  C      -0.382670      1.828256     -0.951684
  O      -0.044815      2.855413     -1.772546
  C       0.597296      0.983237     -0.473820
  H       3.565328     -1.532294      2.102491
  H       4.454853     -1.186751      0.592572
  H       3.362547     -2.596701      0.684638
  H      -1.361564     -1.100913      1.363613
  H      -3.444286      0.003531      1.460770
  H      -3.541732      2.267271     -0.980628
  H      -0.852683      3.316906     -2.038257
  H       1.625417      1.153408     -0.764775
  O      -6.264238     -1.133603     -1.740135
  H      -5.921094     -1.812703     -2.336587
  H      -6.978655     -1.552055     -1.241744
  O      -5.214065      1.810715     -1.154898
  H      -5.832151      2.237758     -0.549691
  H      -5.570863      1.946174     -2.041221
  O      -5.950892     -0.322048      1.015134
  H      -6.592685     -1.046973      1.028004
  H      -6.465819      0.491658      1.097034
  O      -3.540396     -0.558686     -2.070834
  H      -3.918422     -0.298402     -2.921442
  H      -3.275706     -1.483766     -2.173839
34
Coordinates from ORCA-job cu_P0_cplx E -2630.963516176041
  Cu     -4.845930     -0.324663     -0.619972
  C       3.531820     -1.569502      1.004054
  O       2.497117     -0.713337      0.514415
  C       1.260303     -1.004357      0.906803
  O       1.003124     -1.941948      1.636025
  C       0.249966     -0.074474      0.368270
  C      -1.079095     -0.285125      0.714444
  C      -2.046955      0.576918      0.245223
  O      -3.376197      0.417346      0.593538
  C      -1.726592      1.647677     -0.584397
  O      -2.603122      2.540428     -1.070411
  C      -0.383592      1.835271     -0.938433
  O      -0.046472      2.869464     -1.751064
  C       0.596974      0.988431     -0.465176
  H       3.569442     -1.535997      2.093113
  H       4.456324     -1.182229      0.584007
  H       3.367271     -2.594496      0.671645
  H      -1.360622     -1.112053      1.356323
  H      -3.445093     -0.007350      1.460978
  H      -3.543224      2.265107     -0.977580
  H      -0.854595      3.331611     -2.014696
  H       1.625345      1.162521     -0.753450
  O      -6.260522     -1.159855     -1.734222
  H      -5.910930     -1.840545     -2.324386
  H      -6.972820     -1.581150     -1.235081
  O      -5.208624      1.805520     -1.168278
  H      -5.827950      2.236822     -0.568408
  H      -5.557786      1.941151     -2.057221
  O      -5.963885     -0.300126      1.008412
  H      -6.640069     -0.992085      1.012415
  H      -6.438185      0.536941      1.105265
  O      -3.547395     -0.564074     -2.072880
  H      -3.931474     -0.317578     -2.925398
  H      -3.270533     -1.486755     -2.166929
34
Coordinates from ORCA-job cu_P0_cplx E -2630.963550245778
  Cu     -4.849386     -0.323857     -0.625486
  C       3.529702     -1.570608      1.001136
  O       2.494865     -0.713391      0.513604
  C       1.258393     -1.004708      0.906671
  O       1.001637     -1.943550      1.635127
  C       0.248295     -0.073061      0.370617
  C      -1.080889     -0.283630      0.715011
  C      -2.048632      0.578369      0.244888
  O      -3.378059      0.417490      0.592487
  C      -1.727735      1.649065     -0.583982
  O      -2.603597      2.541290     -1.073852
  C      -0.384195      1.837812     -0.934613
  O      -0.045846      2.873461     -1.744858
  C       0.595948      0.990746     -0.460919
  H       3.569657     -1.537689      2.090094
  H       4.453248     -1.183458      0.579511
  H       3.363859     -2.595412      0.668605
  H      -1.363456     -1.110739      1.355729
  H      -3.445456     -0.012967      1.457716
  H      -3.544424      2.266404     -0.980080
  H      -0.853678      3.337095     -2.006839
  H       1.624523      1.165340     -0.747434
  O      -6.262909     -1.167142     -1.731688
  H      -5.911087     -1.850286     -2.318827
  H      -6.973180     -1.587612     -1.230131
  O      -5.207583      1.806592     -1.171307
  H      -5.827614      2.240723     -0.571838
  H      -5.554475      1.943956     -2.061768
  O      -5.957703     -0.303428      1.004159
  H      -6.649051     -0.980824      1.008388
  H      -6.414079      0.542155      1.116343
  O      -3.547543     -0.566307     -2.075359
  H      -3.931192     -0.326812     -2.931027
  H      -3.262334     -1.487509     -2.163130
34
Coordinates from ORCA-job cu_P0_cplx E -2630.963563820872
  Cu     -4.852484     -0.318205     -0.631528
  C       3.528092     -1.569004      1.000355
  O       2.493005     -0.711652      0.514832
  C       1.255885     -1.004713      0.906567
  O       0.998839     -1.944164      1.633387
  C       0.245685     -0.073642      0.370949
  C      -1.083890     -0.284573      0.713756
  C      -2.050837      0.578691      0.243768
  O      -3.380730      0.416756      0.590143
  C      -1.730149      1.649058     -0.584924
  O      -2.604895      2.543016     -1.076266
  C      -0.386374      1.836569     -0.934082
  O      -0.047092      2.872067     -1.743644
  C       0.593716      0.989707     -0.459884
  H       3.565687     -1.540376      2.089862
  H       4.452696     -1.177853      0.581793
  H       3.364170     -2.593009      0.662442
  H      -1.366751     -1.111553      1.353474
  H      -3.447701     -0.019055      1.452985
  H      -3.545350      2.270127     -0.981236
  H      -0.855498      3.336529     -2.003721
  H       1.622429      1.164385     -0.745010
  O      -6.264754     -1.166752     -1.731828
  H      -5.911957     -1.854564     -2.311631
  H      -6.975848     -1.582990     -1.226182
  O      -5.205550      1.810322     -1.173032
  H      -5.822157      2.246295     -0.572535
  H      -5.554505      1.948695     -2.061546
  O      -5.952380     -0.310347      1.001816
  H      -6.650898     -0.977837      1.007976
  H      -6.398377      0.540634      1.127457
  O      -3.542165     -0.570102     -2.075715
  H      -3.918222     -0.335238     -2.935363
  H      -3.255614     -1.489719     -2.156489
34
Coordinates from ORCA-job cu_P0_cplx E -2630.963570363594
  Cu     -4.851399     -0.319988     -0.632140
  C       3.525716     -1.573161      1.000383
  O       2.492422     -0.713065      0.515129
  C       1.255073     -1.003649      0.907184
  O       0.996496     -1.943054      1.633722
  C       0.245868     -0.071169      0.371159
  C      -1.083738     -0.281849      0.714077
  C      -2.050569      0.581164      0.243954
  O      -3.380509      0.418007      0.589097
  C      -1.729953      1.651605     -0.584685
  O      -2.604795      2.545386     -1.074690
  C      -0.385987      1.839141     -0.933834
  O      -0.047135      2.874300     -1.744047
  C       0.594214      0.992354     -0.459584
  H       3.564677     -1.544086      2.089849
  H       4.450876     -1.185233      0.581073
  H       3.358622     -2.596651      0.663109
  H      -1.367360     -1.109007      1.353515
  H      -3.447126     -0.017989      1.451973
  H      -3.545101      2.270858     -0.981401
  H      -0.856027      3.337694     -2.004435
  H       1.622873      1.166904     -0.745058
  O      -6.262599     -1.173593     -1.731449
  H      -5.908850     -1.861788     -2.311746
  H      -6.974551     -1.589204     -1.227537
  O      -5.209141      1.809410     -1.171683
  H      -5.828007      2.244580     -0.571610
  H      -5.558027      1.946379     -2.061254
  O      -5.948138     -0.308733      1.001752
  H      -6.650619     -0.974185      1.009165
  H      -6.389315      0.542590      1.130756
  O      -3.541998     -0.566448     -2.078152
  H      -3.920244     -0.335234     -2.938557
  H      -3.249625     -1.484780     -2.157088
34
Coordinates from ORCA-job cu_P0_cplx E -2630.963577845298
  Cu     -4.850440     -0.321264     -0.632497
  C       3.526699     -1.572432      1.002200
  O       2.493436     -0.713121      0.515693
  C       1.255751     -1.004412      0.906567
  O       0.996705     -1.944118      1.632994
  C       0.246684     -0.072097      0.369880
  C      -1.082998     -0.283219      0.712334
  C      -2.049855      0.579846      0.242413
  O      -3.379790      0.416738      0.587277
  C      -1.729000      1.650859     -0.585662
  O      -2.603845      2.544648     -1.075102
  C      -0.384924      1.839072     -0.934384
  O      -0.046203      2.875645     -1.743417
  C       0.595197      0.992012     -0.460313
  H       3.565114     -1.542099      2.091390
  H       4.452005     -1.185134      0.582982
  H       3.359977     -2.596156      0.666089
  H      -1.366850     -1.110492      1.351592
  H      -3.446945     -0.017631      1.450634
  H      -3.544152      2.270394     -0.981370
  H      -0.855011      3.339192     -2.003618
  H       1.623960      1.167144     -0.745305
  O      -6.264086     -1.172707     -1.729385
  H      -5.911673     -1.857810     -2.313724
  H      -6.972450     -1.591757     -1.223326
  O      -5.210093      1.811211     -1.168660
  H      -5.828684      2.246368     -0.567972
  H      -5.560946      1.945666     -2.057912
  O      -5.950142     -0.304945      1.000804
  H      -6.646646     -0.976254      1.014584
  H      -6.398948      0.543674      1.121856
  O      -3.543633     -0.567015     -2.080184
  H      -3.921767     -0.336397     -2.940725
  H      -3.250421     -1.485903     -2.158788
34
Coordinates from ORCA-job cu_P0_cplx E -2630.963593620215
  Cu     -4.850161     -0.321100     -0.633865
  C       3.526254     -1.573481      1.003725
  O       2.494012     -0.712890      0.516833
  C       1.256092     -1.003600      0.906464
  O       0.996391     -1.942740      1.632950
  C       0.247435     -0.071443      0.368599
  C      -1.082432     -0.283544      0.709892
  C      -2.049386      0.579128      0.239992
  O      -3.379471      0.415168      0.584053
  C      -1.728262      1.651361     -0.586585
  O      -2.602946      2.545486     -1.074602
  C      -0.384031      1.840340     -0.934509
  O      -0.045798      2.877717     -1.742714
  C       0.596149      0.993318     -0.460640
  H       3.563316     -1.544554      2.093157
  H       4.452308     -1.186424      0.586273
  H       3.359560     -2.596816      0.665983
  H      -1.366569     -1.111562      1.348298
  H      -3.446794     -0.018874      1.447644
  H      -3.543428      2.270796     -0.982021
  H      -0.854816      3.340917     -2.002552
  H       1.625043      1.169219     -0.744841
  O      -6.264065     -1.174952     -1.728598
  H      -5.911858     -1.861120     -2.311609
  H      -6.972132     -1.592721     -1.220978
  O      -5.211696      1.812823     -1.166414
  H      -5.828047      2.248294     -0.564616
  H      -5.565861      1.945421     -2.054508
  O      -5.950173     -0.303776      1.000492
  H      -6.646845     -0.974840      1.016191
  H      -6.398491      0.545212      1.120212
  O      -3.544816     -0.567267     -2.082561
  H      -3.922695     -0.340420     -2.943994
  H      -3.249766     -1.485569     -2.158205
34
Coordinates from ORCA-job cu_P0_cplx E -2630.963579528937
  Cu     -4.850555     -0.318959     -0.635901
  C       3.525393     -1.572873      1.006513
  O       2.493654     -0.712907      0.517862
  C       1.254978     -1.004947      0.904724
  O       0.994170     -1.945601      1.629354
  C       0.246824     -0.072592      0.366069
  C      -1.083090     -0.284693      0.706991
  C      -2.049807      0.578553      0.237708
  O      -3.379926      0.414609      0.581287
  C      -1.728511      1.651274     -0.588049
  O      -2.603089      2.546218     -1.074426
  C      -0.384314      1.839997     -0.936084
  O      -0.046330      2.877591     -1.743915
  C       0.595803      0.992700     -0.462471
  H       3.560004     -1.544140      2.095735
  H       4.452303     -1.185435      0.591191
  H       3.360059     -2.595934      0.668271
  H      -1.367060     -1.113374      1.344757
  H      -3.447804     -0.020508      1.444323
  H      -3.543332      2.273017     -0.981532
  H      -0.855337      3.341083     -2.003145
  H       1.624787      1.168590     -0.746332
  O      -6.262752     -1.176942     -1.729360
  H      -5.909959     -1.865985     -2.308516
  H      -6.972066     -1.591583     -1.220630
  O      -5.213728      1.815683     -1.163735
  H      -5.828450      2.251471     -0.560727
  H      -5.570458      1.947080     -2.050863
  O      -5.948159     -0.304904      1.001159
  H      -6.646695     -0.973684      1.017163
  H      -6.392948      0.545475      1.124455
  O      -3.543518     -0.564693     -2.083781
  H      -3.920700     -0.344427     -2.947361
  H      -3.243362     -1.481652     -2.153789
34
Coordinates from ORCA-job cu_P0_cplx E -2630.963588449631
  Cu     -4.851431     -0.318327     -0.637233
  C       3.525873     -1.571931      1.008242
  O       2.494032     -0.712565      0.518673
  C       1.255325     -1.004895      0.904856
  O       0.994681     -1.944807      1.629970
  C       0.247083     -0.073437      0.365097
  C      -1.082952     -0.285892      0.705182
  C      -2.049632      0.577379      0.235696
  O      -3.379718      0.413576      0.579161
  C      -1.728171      1.650425     -0.589470
  O      -2.602649      2.545479     -1.075790
  C      -0.383796      1.839384     -0.936834
  O      -0.045431      2.877519     -1.743891
  C       0.596198      0.992067     -0.463061
  H       3.558806     -1.543851      2.097744
  H       4.453070     -1.183138      0.594296
  H       3.362035     -2.595183      0.669003
  H      -1.367136     -1.114337      1.342852
  H      -3.447613     -0.021811      1.442110
  H      -3.543109      2.273123     -0.981514
  H      -0.854286      3.341708     -2.002487
  H       1.625358      1.168424     -0.746131
  O      -6.264010     -1.176606     -1.729697
  H      -5.911830     -1.867581     -2.307069
  H      -6.973479     -1.589245     -1.219655
  O      -5.213968      1.817837     -1.161233
  H      -5.827775      2.254166     -0.557522
  H      -5.571596      1.949443     -2.048009
  O      -5.947277     -0.306283      1.000760
  H      -6.646226     -0.974521      1.017431
  H      -6.391429      0.544382      1.124019
  O      -3.545813     -0.564279     -2.085824
  H      -3.924401     -0.348341     -2.949945
  H      -3.242710     -1.480375     -2.152780
34
Coordinates from ORCA-job cu_P0_cplx E -2630.963600125427
  Cu     -4.852874     -0.317815     -0.638844
  C       3.526444     -1.570576      1.010024
  O       2.494220     -0.712064      0.519370
  C       1.255628     -1.005168      0.904845
  O       0.995388     -1.945269      1.629779
  C       0.247229     -0.074215      0.364586
  C      -1.082891     -0.286946      0.703909
  C      -2.049592      0.576117      0.233959
  O      -3.379672      0.412556      0.577255
  C      -1.727945      1.649197     -0.590796
  O      -2.602654      2.543606     -1.077673
  C      -0.383501      1.838242     -0.937775
  O      -0.044650      2.875698     -1.745028
  C       0.596329      0.991159     -0.463538
  H       3.557932     -1.543024      2.099749
  H       4.453422     -1.180286      0.597222
  H       3.364400     -2.594105      0.670217
  H      -1.367177     -1.115252      1.341537
  H      -3.447816     -0.023465      1.439828
  H      -3.543476      2.272673     -0.980817
  H      -0.853088      3.340732     -2.003350
  H       1.625549      1.167407     -0.746248
  O      -6.264260     -1.177659     -1.731799
  H      -5.912688     -1.872658     -2.304603
  H      -6.975319     -1.586387     -1.220857
  O      -5.214567      1.820516     -1.157544
  H      -5.826916      2.257681     -0.552906
  H      -5.572799      1.953324     -2.043869
  O      -5.946360     -0.308094      1.000369
  H      -6.647567     -0.974167      1.015690
  H      -6.387826      0.544032      1.124436
  O      -3.548734     -0.560651     -2.088083
  H      -3.930532     -0.353134     -2.952495
  H      -3.237616     -1.474499     -2.149605
34
Coordinates from ORCA-job cu_P0_cplx E -2630.963599039618
  Cu     -4.855041     -0.317039     -0.640288
  C       3.528459     -1.566954      1.013773
  O       2.495307     -0.711420      0.520039
  C       1.256438     -1.007006      0.903281
  O       0.996555     -1.947960      1.627215
  C       0.247554     -0.077252      0.362245
  C      -1.082610     -0.290478      0.701044
  C      -2.049187      0.573094      0.231455
  O      -3.379150      0.410222      0.575072
  C      -1.727585      1.646775     -0.592587
  O      -2.602531      2.541607     -1.078731
  C      -0.383181      1.835768     -0.939769
  O      -0.043439      2.873480     -1.746457
  C       0.596490      0.988415     -0.465629
  H       3.556668     -1.539045      2.103549
  H       4.455441     -1.174032      0.603296
  H       3.370058     -2.591012      0.673941
  H      -1.366912     -1.118856      1.338472
  H      -3.447741     -0.025467      1.437728
  H      -3.543581      2.272373     -0.978181
  H      -0.851291      3.339856     -2.004334
  H       1.625794      1.164848     -0.747956
  O      -6.265105     -1.178105     -1.734383
  H      -5.914701     -1.879073     -2.300845
  H      -6.979158     -1.579902     -1.222482
  O      -5.214519      1.824292     -1.152020
  H      -5.826399      2.262259     -0.547194
  H      -5.571569      1.959033     -2.038517
  O      -5.947096     -0.309449      1.000499
  H      -6.650169     -0.973724      1.012992
  H      -6.386746      0.543473      1.123666
  O      -3.553606     -0.554501     -2.091672
  H      -3.942827     -0.362875     -2.956946
  H      -3.228596     -1.463838     -2.143329
34
Coordinates from ORCA-job cu_P0_cplx E -2630.963608272061
  Cu     -4.856918     -0.316672     -0.642201
  C       3.528029     -1.566818      1.014586
  O       2.494726     -0.711974      0.519652
  C       1.255811     -1.008008      0.902228
  O       0.996076     -1.949366      1.625433
  C       0.246750     -0.078461      0.361326
  C      -1.083296     -0.291165      0.700955
  C      -2.049764      0.572283      0.231169
  O      -3.379741      0.409818      0.574538
  C      -1.728250      1.645614     -0.593389
  O      -2.603710      2.539912     -1.079655
  C      -0.384099      1.834178     -0.941635
  O      -0.043692      2.871211     -1.748951
  C       0.595461      0.986684     -0.467349
  H       3.554625     -1.539717      2.104549
  H       4.454997     -1.172423      0.605663
  H       3.371022     -2.590943      0.674080
  H      -1.367163     -1.119311      1.338856
  H      -3.449312     -0.026405      1.436708
  H      -3.544868      2.272251     -0.975356
  H      -0.850907      3.338305     -2.007429
  H       1.624744      1.162527     -0.750203
  O      -6.262106     -1.182770     -1.738707
  H      -5.911670     -1.891061     -2.295525
  H      -6.981057     -1.576741     -1.227248
  O      -5.216362      1.827206     -1.147265
  H      -5.827925      2.266136     -0.542600
  H      -5.572005      1.963547     -2.034086
  O      -5.946264     -0.310558      1.000422
  H      -6.652880     -0.971240      1.008973
  H      -6.381983      0.544349      1.125609
  O      -3.554710     -0.543182     -2.094024
  H      -3.951156     -0.374632     -2.960796
  H      -3.206380     -1.445070     -2.131383
34
Coordinates from ORCA-job cu_P0_cplx E -2630.963611288636
  Cu     -4.857509     -0.316653     -0.642579
  C       3.528683     -1.566249      1.014430
  O       2.494955     -0.711837      0.519635
  C       1.255896     -1.009069      0.901690
  O       0.996072     -1.952072      1.623439
  C       0.246657     -0.078751      0.361987
  C      -1.083358     -0.291180      0.702455
  C      -2.049700      0.572215      0.232479
  O      -3.379889      0.409277      0.575435
  C      -1.728534      1.645099     -0.593111
  O      -2.603904      2.539176     -1.080042
  C      -0.384585      1.832944     -0.942198
  O      -0.044120      2.868521     -1.751287
  C       0.595136      0.985840     -0.467495
  H       3.555784     -1.538730      2.104058
  H       4.455302     -1.171888      0.605339
  H       3.371798     -2.590236      0.674399
  H      -1.367379     -1.119166      1.340648
  H      -3.449728     -0.026131      1.437981
  H      -3.545081      2.271702     -0.973611
  H      -0.851480      3.334652     -2.011058
  H       1.624212      1.161117     -0.751318
  O      -6.261051     -1.183405     -1.740419
  H      -5.910912     -1.895546     -2.292839
  H      -6.983189     -1.572227     -1.229627
  O      -5.216822      1.828863     -1.144202
  H      -5.828976      2.267848     -0.540363
  H      -5.571141      1.965958     -2.031434
  O      -5.947906     -0.310517      0.999366
  H      -6.653050     -0.972703      1.006876
  H      -6.386487      0.543068      1.121792
  O      -3.555188     -0.536458     -2.095786
  H      -3.955974     -0.383218     -2.962924
  H      -3.192508     -1.432738     -2.124769
34
Coordinates from ORCA-job cu_P0_cplx E -2630.963616414645
  Cu     -4.856664     -0.316961     -0.642649
  C       3.526618     -1.570139      1.009424
  O       2.493417     -0.712959      0.518375
  C       1.254296     -1.009626      0.901059
  O       0.993934     -1.953976      1.621129
  C       0.245287     -0.077329      0.364012
  C      -1.084579     -0.288646      0.706734
  C      -2.050705      0.574731      0.236855
  O      -3.381230      0.410997      0.579037
  C      -1.729927      1.646658     -0.590777
  O      -2.604921      2.540844     -1.078557
  C      -0.386385      1.833229     -0.941658
  O      -0.046443      2.867442     -1.753011
  C       0.593541      0.986042     -0.467055
  H       3.556061     -1.544809      2.098825
  H       4.453345     -1.176793      0.599951
  H       3.367111     -2.592868      0.667587
  H      -1.368350     -1.116545      1.345590
  H      -3.451924     -0.022240      1.442564
  H      -3.545845      2.273334     -0.971000
  H      -0.854173      3.331140     -2.015728
  H       1.622247      1.160246     -0.752853
  O      -6.255451     -1.187658     -1.741697
  H      -5.903640     -1.904002     -2.287422
  H      -6.982547     -1.570663     -1.233343
  O      -5.218697      1.829533     -1.143131
  H      -5.833009      2.268665     -0.542093
  H      -5.570723      1.964999     -2.031452
  O      -5.951214     -0.307466      0.996985
  H      -6.651815     -0.974253      1.005002
  H      -6.396463      0.543344      1.114883
  O      -3.550498     -0.524456     -2.096276
  H      -3.957594     -0.404344     -2.965839
  H      -3.157038     -1.407963     -2.106524
34
Coordinates from ORCA-job cu_P0_cplx E -2630.963652958711
  Cu     -4.856123     -0.315668     -0.642721
  C       3.524100     -1.573668      1.005367
  O       2.491590     -0.714028      0.517587
  C       1.252358     -1.010526      0.899895
  O       0.991448     -1.955448      1.618844
  C       0.243712     -0.077061      0.364123
  C      -1.086005     -0.287346      0.708483
  C      -2.052008      0.576450      0.239235
  O      -3.382555      0.412756      0.581331
  C      -1.731243      1.648117     -0.589213
  O      -2.605530      2.543185     -1.076550
  C      -0.387896      1.833650     -0.941384
  O      -0.048706      2.867891     -1.753508
  C       0.592048      0.985792     -0.467629
  H       3.554278     -1.551342      2.094726
  H       4.451397     -1.180425      0.596783
  H       3.363169     -2.595067      0.660492
  H      -1.369453     -1.114979      1.347916
  H      -3.453725     -0.019781      1.445185
  H      -3.546352      2.275631     -0.969354
  H      -0.856977      3.329672     -2.017928
  H       1.620567      1.159429     -0.754717
  O      -6.249378     -1.192159     -1.742434
  H      -5.895202     -1.914249     -2.279117
  H      -6.982623     -1.567858     -1.237299
  O      -5.221250      1.830633     -1.142672
  H      -5.837075      2.270083     -0.543694
  H      -5.572133      1.964396     -2.031732
  O      -5.953793     -0.305522      0.994469
  H      -6.652506     -0.974131      1.001838
  H      -6.401434      0.544026      1.111944
  O      -3.546674     -0.513958     -2.096265
  H      -3.957081     -0.427668     -2.967693
  H      -3.122922     -1.383321     -2.087361
34
Coordinates from ORCA-job cu_P0_cplx E -2630.963662662320
  Cu     -4.852806     -0.313987     -0.641076
  C       3.517258     -1.582408      0.995235
  O       2.486767     -0.716243      0.515250
  C       1.247586     -1.011056      0.897560
  O       0.985487     -1.956595      1.614886
  C       0.240306     -0.074687      0.364368
  C      -1.089263     -0.283364      0.709715
  C      -2.054846      0.582300      0.242760
  O      -3.385225      0.419338      0.585377
  C      -1.733253      1.654176     -0.584819
  O      -2.606394      2.550941     -1.070844
  C      -0.389870      1.838521     -0.937555
  O      -0.051873      2.874128     -1.748496
  C       0.589561      0.988832     -0.466161
  H       3.549731     -1.567218      2.084846
  H       4.445520     -1.189913      0.587506
  H       3.352332     -2.601041      0.643535
  H      -1.373012     -1.111171      1.348694
  H      -3.456146     -0.011436      1.450193
  H      -3.547018      2.282003     -0.968977
  H      -0.860882      3.334023     -2.013818
  H       1.617903      1.161710     -0.754375
  O      -6.239003     -1.199554     -1.739506
  H      -5.879350     -1.924585     -2.268422
  H      -6.977109     -1.572534     -1.239285
  O      -5.223523      1.828384     -1.150018
  H      -5.842881      2.268417     -0.555434
  H      -5.572622      1.956596     -2.040600
  O      -5.956830     -0.300388      0.990990
  H      -6.651736     -0.972807      1.001281
  H      -6.408210      0.547429      1.107864
  O      -3.536925     -0.508674     -2.090302
  H      -3.946974     -0.460950     -2.964572
  H      -3.080676     -1.360680     -2.058854
34
Coordinates from ORCA-job cu_P0_cplx E -2630.963679495967
  Cu     -4.853200     -0.311880     -0.640426
  C       3.516034     -1.583794      0.993841
  O       2.485913     -0.716885      0.514991
  C       1.246401     -1.012375      0.895770
  O       0.983845     -1.958121      1.612285
  C       0.239372     -0.075854      0.362372
  C      -1.090160     -0.284159      0.708252
  C      -2.055619      0.582409      0.242454
  O      -3.385806      0.420210      0.586079
  C      -1.733872      1.654974     -0.584547
  O      -2.606332      2.553019     -1.069132
  C      -0.390358      1.838812     -0.937811
  O      -0.052644      2.875468     -1.748186
  C       0.588906      0.988063     -0.467802
  H       3.547542     -1.570680      2.083419
  H       4.444989     -1.190659      0.587734
  H       3.351477     -2.601535      0.639629
  H      -1.373859     -1.112122      1.347196
  H      -3.456419     -0.011213      1.450677
  H      -3.546914      2.283766     -0.968304
  H      -0.862156      3.334875     -2.013142
  H       1.617278      1.160953     -0.756380
  O      -6.235350     -1.201684     -1.739900
  H      -5.874753     -1.933985     -2.258242
  H      -6.980612     -1.565211     -1.243197
  O      -5.225292      1.829680     -1.149597
  H      -5.845472      2.269910     -0.555975
  H      -5.573337      1.957863     -2.040757
  O      -5.959793     -0.300390      0.988931
  H      -6.654001     -0.973496      0.997710
  H      -6.411668      0.546800      1.107213
  O      -3.536683     -0.501780     -2.090643
  H      -3.947878     -0.485108     -2.964796
  H      -3.053556     -1.338363     -2.042771
34
Coordinates from ORCA-job cu_P0_cplx E -2630.963670901238
  Cu     -4.850329     -0.309304     -0.635437
  C       3.511223     -1.588531      0.989445
  O       2.483075     -0.717880      0.513731
  C       1.243342     -1.012097      0.892794
  O       0.979726     -1.956692      1.609545
  C       0.238007     -0.075020      0.357735
  C      -1.091674     -0.283456      0.699959
  C      -2.056887      0.586223      0.237810
  O      -3.386241      0.426915      0.585412
  C      -1.733261      1.661650     -0.582795
  O      -2.605058      2.562014     -1.063379
  C      -0.388423      1.846744     -0.932516
  O      -0.050446      2.888792     -1.735640
  C       0.589470      0.992906     -0.466704
  H       3.541552     -1.580619      2.079641
  H       4.441377     -1.195166      0.584811
  H       3.345830     -2.604770      0.629557
  H      -1.377172     -1.112582      1.335927
  H      -3.452805     -0.007452      1.449251
  H      -3.545561      2.289693     -0.973909
  H      -0.860245      3.352448     -1.992770
  H       1.618435      1.166923     -0.752615
  O      -6.233998     -1.201950     -1.732240
  H      -5.870911     -1.934267     -2.248478
  H      -6.980850     -1.566954     -1.239247
  O      -5.223492      1.823181     -1.164501
  H      -5.844310      2.262996     -0.570536
  H      -5.572419      1.949596     -2.055772
  O      -5.961350     -0.298898      0.987489
  H      -6.655810     -0.972293      1.001234
  H      -6.409548      0.549785      1.111664
  O      -3.534270     -0.518526     -2.081231
  H      -3.940863     -0.500857     -2.957400
  H      -3.050089     -1.355047     -2.033889
34
Coordinates from ORCA-job cu_P0_cplx E -2630.963688580436
  Cu     -4.853252     -0.310070     -0.638848
  C       3.514606     -1.584810      0.993200
  O       2.485176     -0.717131      0.514417
  C       1.245286     -1.013432      0.892984
  O       0.982136     -1.960170      1.607972
  C       0.238914     -0.076653      0.358970
  C      -1.090597     -0.284743      0.703427
  C      -2.055958      0.582997      0.239029
  O      -3.386055      0.422165      0.584711
  C      -1.733454      1.656955     -0.584772
  O      -2.605713      2.556278     -1.067039
  C      -0.389423      1.841207     -0.936590
  O      -0.051043      2.879985     -1.743729
  C       0.589127      0.988852     -0.468702
  H       3.543977     -1.574267      2.082933
  H       4.444062     -1.190516      0.589079
  H       3.351248     -2.601929      0.636105
  H      -1.375215     -1.112855      1.340992
  H      -3.454440     -0.011758      1.448409
  H      -3.546405      2.286085     -0.970125
  H      -0.860282      3.342996     -2.003427
  H       1.617747      1.161872     -0.756176
  O      -6.234905     -1.203345     -1.738154
  H      -5.874973     -1.942781     -2.246618
  H      -6.986200     -1.557781     -1.244327
  O      -5.225328      1.828941     -1.153389
  H      -5.843941      2.269135     -0.557805
  H      -5.574655      1.958389     -2.043779
  O      -5.963010     -0.300323      0.986489
  H      -6.657164     -0.973878      0.997701
  H      -6.413614      0.547510      1.106598
  O      -3.538735     -0.503950     -2.089192
  H      -3.949339     -0.509414     -2.963682
  H      -3.032552     -1.326055     -2.029713
34
Coordinates from ORCA-job cu_P0_cplx E -2630.963711167678
  Cu     -4.854377     -0.309978     -0.640553
  C       3.514163     -1.584841      0.992992
  O       2.484498     -0.717978      0.512920
  C       1.244369     -1.015217      0.890564
  O       0.980975     -1.963592      1.603602
  C       0.237901     -0.077687      0.357966
  C      -1.091646     -0.285686      0.703129
  C      -2.056628      0.582690      0.239302
  O      -3.387015      0.421904      0.584628
  C      -1.734207      1.656589     -0.584909
  O      -2.606757      2.556170     -1.066650
  C      -0.390576      1.840233     -0.937977
  O      -0.051639      2.877603     -1.746079
  C       0.587918      0.987810     -0.469899
  H       3.542242     -1.574378      2.082621
  H       4.443479     -1.189622      0.590022
  H       3.351866     -2.602083      0.636170
  H      -1.376357     -1.114433      1.340246
  H      -3.456063     -0.012133      1.448025
  H      -3.547464      2.286645     -0.967517
  H      -0.860180      3.341643     -2.005945
  H       1.616443      1.160061     -0.758037
  O      -6.232974     -1.207087     -1.740501
  H      -5.874461     -1.953200     -2.240115
  H      -6.988566     -1.552493     -1.246762
  O      -5.226205      1.831661     -1.149717
  H      -5.844088      2.272371     -0.553638
  H      -5.575025      1.962109     -2.040055
  O      -5.964767     -0.299577      0.984706
  H      -6.658135     -0.973897      0.996256
  H      -6.417455      0.547468      1.102244
  O      -3.539307     -0.495299     -2.090927
  H      -3.949852     -0.531099     -2.964704
  H      -3.004084     -1.297171     -2.014462
34
Coordinates from ORCA-job cu_P0_cplx E -2630.963745390115
  Cu     -4.854280     -0.309873     -0.641276
  C       3.511375     -1.587651      0.989837
  O       2.482242     -0.719531      0.510804
  C       1.241879     -1.017001      0.887423
  O       0.977781     -1.966840      1.598381
  C       0.235978     -0.078014      0.356316
  C      -1.093475     -0.285155      0.701879
  C      -2.057979      0.584423      0.239341
  O      -3.388479      0.424159      0.584747
  C      -1.735106      1.658780     -0.583868
  O      -2.607489      2.559295     -1.064185
  C      -0.391492      1.841956     -0.937217
  O      -0.051962      2.880237     -1.743886
  C       0.586414      0.988031     -0.470525
  H       3.538731     -1.579375      2.079485
  H       4.440990     -1.191887      0.588151
  H       3.348968     -2.604192      0.631029
  H      -1.378630     -1.113949      1.338334
  H      -3.457540     -0.009569      1.448381
  H      -3.548193      2.289215     -0.966451
  H      -0.860001      3.345798     -2.002516
  H       1.614988      1.159704     -0.758806
  O      -6.229309     -1.213082     -1.740365
  H      -5.870718     -1.964915     -2.231178
  H      -6.989091     -1.551111     -1.247993
  O      -5.227156      1.832147     -1.150614
  H      -5.845205      2.273466     -0.555251
  H      -5.575356      1.961787     -2.041266
  O      -5.966640     -0.297062      0.982221
  H      -6.659021     -0.972467      0.996168
  H      -6.420631      0.549528      1.098142
  O      -3.537759     -0.490428     -2.090084
  H      -3.945675     -0.559931     -2.962951
  H      -2.972135     -1.268986     -1.995262
34
Coordinates from ORCA-job cu_P0_cplx E -2630.963768327044
  Cu     -4.851724     -0.311083     -0.643183
  C       3.503016     -1.594581      0.980249
  O       2.474876     -0.724054      0.501938
  C       1.234281     -1.020534      0.877802
  O       0.968563     -1.973319      1.584307
  C       0.230002     -0.076645      0.352113
  C      -1.099788     -0.283627      0.696055
  C      -2.061914      0.591563      0.239342
  O      -3.392672      0.432379      0.583709
  C      -1.737092      1.669095     -0.578596
  O      -2.609639      2.572228     -1.053846
  C      -0.393406      1.852405     -0.931207
  O      -0.051126      2.893816     -1.731476
  C       0.582405      0.994042     -0.468140
  H       3.529410     -1.589175      2.070230
  H       4.432544     -1.198416      0.579812
  H       3.339775     -2.610624      0.619991
  H      -1.386924     -1.115747      1.327452
  H      -3.462934      0.000642      1.448080
  H      -3.549983      2.297547     -0.965570
  H      -0.856995      3.364936     -1.986596
  H       1.611536      1.164958     -0.754604
  O      -6.224330     -1.222395     -1.737950
  H      -5.866873     -1.975684     -2.226694
  H      -6.981170     -1.559911     -1.240207
  O      -5.222682      1.829286     -1.161843
  H      -5.843250      2.271524     -0.569562
  H      -5.568166      1.954893     -2.054175
  O      -5.964976     -0.289057      0.981659
  H      -6.655287     -0.965956      1.005071
  H      -6.422401      0.556033      1.092247
  O      -3.528584     -0.503647     -2.078468
  H      -3.925901     -0.608099     -2.953865
  H      -2.932569     -1.255285     -1.957126
34
Coordinates from ORCA-job cu_P0_cplx E -2630.963837150033
  Cu     -4.851499     -0.311439     -0.643062
  C       3.501191     -1.596574      0.976288
  O       2.473367     -0.724868      0.499360
  C       1.232669     -1.021778      0.874467
  O       0.966577     -1.976088      1.578661
  C       0.228781     -0.076387      0.350671
  C      -1.101083     -0.283446      0.694139
  C      -2.062705      0.593340      0.239406
  O      -3.393642      0.434085      0.583627
  C      -1.737620      1.672318     -0.576337
  O      -2.610047      2.576438     -1.049640
  C      -0.393676      1.855657     -0.928373
  O      -0.050662      2.898074     -1.726889
  C       0.581662      0.995912     -0.467147
  H       3.526877     -1.593608      2.066377
  H       4.431003     -1.199368      0.577167
  H       3.338171     -2.611850      0.613482
  H      -1.388817     -1.116727      1.323746
  H      -3.463862      0.002859      1.448431
  H      -3.550282      2.299915     -0.964759
  H      -0.856385      3.370292     -1.980499
  H       1.610908      1.166797     -0.753253
  O      -6.222699     -1.226175     -1.738176
  H      -5.867145     -1.985143     -2.219345
  H      -6.983511     -1.555540     -1.241323
  O      -5.221262      1.829097     -1.163908
  H      -5.842551      2.271062     -0.572195
  H      -5.565495      1.955734     -2.056462
  O      -5.968395     -0.285591      0.978882
  H      -6.658083     -0.963381      1.004033
  H      -6.426759      0.559803      1.085878
  O      -3.528681     -0.506489     -2.077119
  H      -3.922088     -0.644256     -2.949729
  H      -2.908233     -1.235168     -1.939452
34
Coordinates from ORCA-job cu_P0_cplx E -2630.963809298152
  Cu     -4.849699     -0.314369     -0.641837
  C       3.497286     -1.600283      0.966508
  O       2.470135     -0.726019      0.492309
  C       1.229500     -1.022440      0.867936
  O       0.962778     -1.979264      1.568266
  C       0.226493     -0.073344      0.349132
  C      -1.103685     -0.281238      0.690648
  C      -2.064064      0.599371      0.240743
  O      -3.395296      0.439080      0.583798
  C      -1.738436      1.681993     -0.569493
  O      -2.611056      2.587739     -1.038912
  C      -0.393792      1.866120     -0.919210
  O      -0.048637      2.911752     -1.712517
  C       0.580514      1.003351     -0.462085
  H       3.523456     -1.600298      2.056917
  H       4.427204     -1.202323      0.567765
  H       3.333040     -2.614579      0.600746
  H      -1.392768     -1.117724      1.315424
  H      -3.465656      0.009986      1.449928
  H      -3.550894      2.305501     -0.963936
  H      -0.853819      3.386401     -1.963332
  H       1.610089      1.174761     -0.746603
  O      -6.223448     -1.228639     -1.739093
  H      -5.873412     -1.990908     -2.218862
  H      -6.984260     -1.552385     -1.239365
  O      -5.213359      1.824674     -1.173563
  H      -5.837938      2.264576     -0.583668
  H      -5.553329      1.954997     -2.067123
  O      -5.970969     -0.278241      0.977148
  H      -6.661606     -0.955933      1.003254
  H      -6.428562      0.569410      1.075826
  O      -3.525399     -0.530307     -2.068257
  H      -3.912080     -0.699594     -2.938782
  H      -2.892307     -1.244320     -1.912762
34
Coordinates from ORCA-job cu_P0_cplx E -2630.963851547320
  Cu     -4.848385     -0.314651     -0.641501
  C       3.493587     -1.604084      0.957981
  O       2.467104     -0.726953      0.487893
  C       1.226463     -1.022810      0.864211
  O       0.959172     -1.981343      1.562061
  C       0.224113     -0.070999      0.349210
  C      -1.106240     -0.278615      0.690726
  C      -2.066053      0.603704      0.243077
  O      -3.397635      0.443140      0.585356
  C      -1.739983      1.687579     -0.565384
  O      -2.612367      2.594257     -1.033580
  C      -0.395131      1.871494     -0.914493
  O      -0.049422      2.917814     -1.706553
  C       0.578729      1.007239     -0.459484
  H       3.521774     -1.606832      2.048193
  H       4.423408     -1.206657      0.558731
  H       3.327078     -2.617050      0.589758
  H      -1.395498     -1.116455      1.313581
  H      -3.468958      0.015966      1.452096
  H      -3.552032      2.309375     -0.963524
  H      -0.854597      3.392200     -1.957948
  H       1.608215      1.178198     -0.744374
  O      -6.221781     -1.227883     -1.741263
  H      -5.874404     -1.993651     -2.217600
  H      -6.984382     -1.546029     -1.240573
  O      -5.210579      1.824127     -1.177455
  H      -5.837816      2.262363     -0.588876
  H      -5.547970      1.955928     -2.071773
  O      -5.973653     -0.274992      0.975029
  H      -6.660640     -0.956453      1.000605
  H      -6.436153      0.570860      1.066103
  O      -3.517382     -0.540696     -2.061063
  H      -3.894674     -0.745498     -2.928031
  H      -2.867886     -1.235085     -1.884188
34
Coordinates from ORCA-job cu_P0_cplx E -2630.963891066445
  Cu     -4.844613     -0.314225     -0.639750
  C       3.487505     -1.610661      0.938837
  O       2.461588     -0.727689      0.479918
  C       1.221570     -1.021172      0.861037
  O       0.954259     -1.980915      1.557340
  C       0.219869     -0.065122      0.352901
  C      -1.110572     -0.271627      0.696060
  C      -2.070149      0.612257      0.250875
  O      -3.402227      0.450998      0.591569
  C      -1.743745      1.696742     -0.557186
  O      -2.615387      2.604505     -1.025370
  C      -0.398881      1.880358     -0.905650
  O      -0.053635      2.928339     -1.696604
  C       0.574969      1.014511     -0.453622
  H       3.523885     -1.617255      2.028260
  H       4.416346     -1.216206      0.534758
  H       3.314181     -2.621025      0.567564
  H      -1.399006     -1.111060      1.317126
  H      -3.475702      0.025910      1.458623
  H      -3.554359      2.315318     -0.963384
  H      -0.859733      3.399624     -1.951430
  H       1.603959      1.185055     -0.740277
  O      -6.218268     -1.218626     -1.747959
  H      -5.872912     -1.983803     -2.227860
  H      -6.979638     -1.537733     -1.245770
  O      -5.205783      1.821960     -1.186807
  H      -5.837930      2.255671     -0.599878
  H      -5.539180      1.957175     -2.082417
  O      -5.978100     -0.270001      0.973360
  H      -6.661188     -0.955142      0.989213
  H      -6.446147      0.573477      1.052657
  O      -3.492641     -0.568162     -2.040771
  H      -3.853108     -0.803481     -2.906131
  H      -2.849204     -1.260490     -1.832284
34
Coordinates from ORCA-job cu_P0_cplx E -2630.963911575498
  Cu     -4.841033     -0.314029     -0.640146
  C       3.481244     -1.617931      0.925159
  O       2.456463     -0.729587      0.474124
  C       1.216854     -1.021384      0.857285
  O       0.949057     -1.982731      1.551300
  C       0.216118     -0.061502      0.353847
  C      -1.114108     -0.266695      0.697923
  C      -2.072981      0.619053      0.254697
  O      -3.405698      0.457487      0.593606
  C      -1.745919      1.704372     -0.551835
  O      -2.616800      2.613448     -1.018825
  C      -0.401118      1.888037     -0.899657
  O      -0.055786      2.938839     -1.687248
  C       0.572041      1.019740     -0.450266
  H       3.521616     -1.629737      2.014421
  H       4.410017     -1.224869      0.519630
  H       3.303504     -2.625897      0.549690
  H      -1.403459     -1.107051      1.316963
  H      -3.480145      0.033460      1.461378
  H      -3.554945      2.321304     -0.963461
  H      -0.862096      3.410502     -1.941008
  H       1.601036      1.190100     -0.737088
  O      -6.212783     -1.218271     -1.749109
  H      -5.866475     -1.984223     -2.227243
  H      -6.974401     -1.538334     -1.247877
  O      -5.203897      1.820437     -1.195802
  H      -5.837135      2.254243     -0.610695
  H      -5.537057      1.952271     -2.092057
  O      -5.982088     -0.263316      0.969504
  H      -6.659788     -0.953171      0.991030
  H      -6.457506      0.576518      1.040306
  O      -3.478499     -0.585000     -2.028592
  H      -3.826707     -0.853223     -2.889555
  H      -2.821502     -1.255351     -1.793451
34
Coordinates from ORCA-job cu_P0_cplx E -2630.963938149398
  Cu     -4.837625     -0.311095     -0.642502
  C       3.477432     -1.623734      0.906399
  O       2.453019     -0.728429      0.468944
  C       1.215191     -1.016166      0.860591
  O       0.948948     -1.976332      1.556480
  C       0.214270     -0.053618      0.361859
  C      -1.115766     -0.258555      0.707798
  C      -2.074978      0.626335      0.262996
  O      -3.409063      0.462027      0.597544
  C      -1.748135      1.710937     -0.545473
  O      -2.618024      2.619211     -1.015773
  C      -0.403512      1.895356     -0.892688
  O      -0.059891      2.946000     -1.681227
  C       0.570104      1.027227     -0.443336
  H       3.528535     -1.640175      1.995132
  H       4.404708     -1.234636      0.493591
  H       3.290955     -2.628886      0.528178
  H      -1.405502     -1.099596      1.326104
  H      -3.484583      0.032302      1.462617
  H      -3.555396      2.324335     -0.965564
  H      -0.867869      3.414925     -1.935243
  H       1.598796      1.197604     -0.731478
  O      -6.210325     -1.202558     -1.756984
  H      -5.862988     -1.966474     -2.237649
  H      -6.970600     -1.529796     -1.257909
  O      -5.202859      1.820766     -1.204824
  H      -5.834175      2.253163     -0.616749
  H      -5.539801      1.952440     -2.099686
  O      -5.988253     -0.260844      0.963994
  H      -6.663616     -0.952207      0.985386
  H      -6.468076      0.576278      1.030458
  O      -3.455591     -0.618852     -2.011348
  H      -3.792073     -0.892729     -2.874978
  H      -2.817232     -1.296717     -1.747715
34
Coordinates from ORCA-job cu_P0_cplx E -2630.963947185950
  Cu     -4.837880     -0.312524     -0.642464
  C       3.478989     -1.621705      0.904072
  O       2.453630     -0.727382      0.466961
  C       1.216193     -1.015492      0.860023
  O       0.950825     -1.975844      1.555747
  C       0.214554     -0.053598      0.362057
  C      -1.115364     -0.259541      0.707873
  C      -2.074696      0.625673      0.263977
  O      -3.408691      0.461587      0.598229
  C      -1.748098      1.710926     -0.543580
  O      -2.618589      2.619575     -1.012511
  C      -0.403518      1.896214     -0.891210
  O      -0.059718      2.947472     -1.678467
  C       0.570035      1.027897     -0.442435
  H       3.530517     -1.638151      1.992917
  H       4.405811     -1.231576      0.490424
  H       3.292714     -2.627229      0.526229
  H      -1.404841     -1.101038      1.325732
  H      -3.484675      0.030996      1.462917
  H      -3.556213      2.324040     -0.964397
  H      -0.867184      3.417659     -1.931320
  H       1.598834      1.198422     -0.730362
  O      -6.212250     -1.197490     -1.759292
  H      -5.865857     -1.958730     -2.244773
  H      -6.971593     -1.526951     -1.260699
  O      -5.200621      1.819471     -1.205859
  H      -5.831541      2.251813     -0.617171
  H      -5.536883      1.952603     -2.100587
  O      -5.991027     -0.257527      0.961911
  H      -6.667598     -0.948523      0.984286
  H      -6.469317      0.581098      1.026609
  O      -3.455946     -0.629953     -2.007656
  H      -3.793099     -0.905706     -2.870134
  H      -2.820882     -1.308980     -1.740100
34
Coordinates from ORCA-job cu_P0_cplx E -2630.963950310595
  Cu     -4.842002     -0.313555     -0.645429
  C       3.484237     -1.615700      0.910557
  O       2.457679     -0.725107      0.468609
  C       1.220378     -1.014351      0.861804
  O       0.956292     -1.973271      1.559880
  C       0.217234     -0.055845      0.360914
  C      -1.112281     -0.263615      0.707183
  C      -2.072728      0.619622      0.261943
  O      -3.406281      0.454859      0.596382
  C      -1.747532      1.704577     -0.546561
  O      -2.619243      2.612840     -1.014266
  C      -0.403389      1.890733     -0.896376
  O      -0.060377      2.941171     -1.684979
  C       0.571054      1.024331     -0.446185
  H       3.533783     -1.629065      1.999665
  H       4.410846     -1.224482      0.497137
  H       3.300221     -2.622978      0.535659
  H      -1.400953     -1.104066      1.327053
  H      -3.481087      0.017754      1.457911
  H      -3.557620      2.320209     -0.961456
  H      -0.867519      3.412638     -1.935951
  H       1.599772      1.195227     -0.734615
  O      -6.217146     -1.190966     -1.765668
  H      -5.873103     -1.955568     -2.246976
  H      -6.981976     -1.513590     -1.271131
  O      -5.204221      1.820685     -1.197347
  H      -5.830651      2.253156     -0.603816
  H      -5.543944      1.958482     -2.089959
  O      -5.991599     -0.258962      0.959959
  H      -6.674902     -0.944344      0.979012
  H      -6.460883      0.584438      1.031706
  O      -3.460002     -0.627504     -2.011785
  H      -3.799718     -0.902946     -2.872856
  H      -2.826316     -1.307303     -1.743074
34
Coordinates from ORCA-job cu_P0_cplx E -2630.963961136484
  Cu     -4.843106     -0.312905     -0.646525
  C       3.487360     -1.611877      0.910018
  O       2.459439     -0.723549      0.466340
  C       1.222802     -1.013210      0.861055
  O       0.960358     -1.971203      1.561058
  C       0.218514     -0.056009      0.359936
  C      -1.110630     -0.264746      0.706426
  C      -2.071894      0.617952      0.261846
  O      -3.405219      0.452174      0.596557
  C      -1.747546      1.703574     -0.545593
  O      -2.620129      2.611292     -1.011913
  C      -0.403687      1.890532     -0.896268
  O      -0.061599      2.940520     -1.685121
  C       0.571219      1.024410     -0.447025
  H       3.537192     -1.623140      1.999154
  H       4.412969     -1.220031      0.495364
  H       3.304742     -2.620358      0.537317
  H      -1.398810     -1.105005      1.326481
  H      -3.478670      0.009504      1.455358
  H      -3.558722      2.318630     -0.960306
  H      -0.868820      3.413379     -1.933281
  H       1.599685      1.195428     -0.735882
  O      -6.220569     -1.180072     -1.772091
  H      -5.879860     -1.947302     -2.251246
  H      -6.989369     -1.497614     -1.280021
  O      -5.203125      1.820715     -1.195458
  H      -5.826654      2.252202     -0.598016
  H      -5.545294      1.963035     -2.086442
  O      -5.995903     -0.258879      0.957187
  H      -6.682451     -0.940980      0.971819
  H      -6.461275      0.586490      1.030162
  O      -3.456770     -0.640726     -2.005907
  H      -3.795694     -0.917785     -2.867254
  H      -2.832461     -1.326941     -1.730784
34
Coordinates from ORCA-job cu_P0_cplx E -2630.963997368091
  Cu     -4.844041     -0.313801     -0.647114
  C       3.490654     -1.608067      0.913124
  O       2.461286     -0.723051      0.465995
  C       1.224797     -1.014247      0.859887
  O       0.963331     -1.972003      1.560913
  C       0.219642     -0.058469      0.357769
  C      -1.109375     -0.267838      0.703893
  C      -2.071262      0.614915      0.260246
  O      -3.404177      0.448743      0.596275
  C      -1.747391      1.701019     -0.546536
  O      -2.620402      2.608407     -1.012419
  C      -0.403757      1.888353     -0.897413
  O      -0.062345      2.937955     -1.686631
  C       0.571621      1.022615     -0.448601
  H       3.538975     -1.616498      2.002288
  H       4.415738     -1.214976      0.498763
  H       3.311096     -2.617923      0.542877
  H      -1.397273     -1.108447      1.323790
  H      -3.476611      0.005090      1.454712
  H      -3.559170      2.316616     -0.959095
  H      -0.869669      3.410997     -1.934243
  H       1.599915      1.194198     -0.737406
  O      -6.224351     -1.175350     -1.773560
  H      -5.885836     -1.943238     -2.253382
  H      -6.994431     -1.490281     -1.281786
  O      -5.202919      1.821951     -1.190796
  H      -5.824790      2.254162     -0.591994
  H      -5.546608      1.964930     -2.081266
  O      -5.998437     -0.256760      0.955617
  H      -6.683391     -0.939930      0.971700
  H      -6.466462      0.587423      1.024197
  O      -3.457131     -0.641024     -2.005456
  H      -3.796617     -0.918919     -2.866683
  H      -2.834584     -1.329046     -1.730718
34
Coordinates from ORCA-job cu_P0_cplx E -2630.963971251424
  Cu     -4.844610     -0.314259     -0.647316
  C       3.491737     -1.606664      0.912697
  O       2.461513     -0.723026      0.464607
  C       1.225238     -1.015198      0.858043
  O       0.964298     -1.973225      1.559147
  C       0.219695     -0.059571      0.356134
  C      -1.109325     -0.269384      0.701914
  C      -2.071589      0.613680      0.259552
  O      -3.404248      0.446878      0.596634
  C      -1.747885      1.700759     -0.546069
  O      -2.620671      2.608842     -1.010887
  C      -0.404279      1.888648     -0.896458
  O      -0.063159      2.940090     -1.684069
  C       0.571449      1.022670     -0.448826
  H       3.539819     -1.613885      2.001879
  H       4.416387     -1.212967      0.498351
  H       3.313747     -2.616995      0.543366
  H      -1.396902     -1.110746      1.320928
  H      -3.475674      0.002366      1.454698
  H      -3.559166      2.316022     -0.959139
  H      -0.870898      3.412729     -1.931355
  H       1.599728      1.195287     -0.737126
  O      -6.225799     -1.173308     -1.774692
  H      -5.888977     -1.943556     -2.252068
  H      -6.998858     -1.483885     -1.284815
  O      -5.201837      1.821333     -1.191086
  H      -5.823406      2.255122     -0.593077
  H      -5.545140      1.963876     -2.081899
  O      -6.000074     -0.254590      0.954657
  H      -6.686160     -0.936276      0.970095
  H      -6.467320      0.589761      1.023035
  O      -3.455303     -0.644638     -2.002342
  H      -3.793238     -0.926577     -2.862810
  H      -2.833069     -1.331807     -1.724757
34
Coordinates from ORCA-job cu_P0_cplx E -2630.963971628154
  Cu     -4.844960     -0.315181     -0.646549
  C       3.494022     -1.604438      0.913731
  O       2.462820     -0.722519      0.464298
  C       1.226883     -1.015307      0.857916
  O       0.966653     -1.973131      1.559549
  C       0.220718     -0.060451      0.355527
  C      -1.108333     -0.270923      0.701001
  C      -2.071192      0.611646      0.259114
  O      -3.403603      0.443921      0.597211
  C      -1.747874      1.699382     -0.546035
  O      -2.620508      2.607713     -1.010475
  C      -0.404280      1.887881     -0.896093
  O      -0.063760      2.940013     -1.683317
  C       0.572036      1.022338     -0.448881
  H       3.541963     -1.609872      2.002990
  H       4.418234     -1.210223      0.499084
  H       3.317539     -2.615477      0.545832
  H      -1.395084     -1.112817      1.319580
  H      -3.474145     -0.000235      1.455535
  H      -3.558883      2.314217     -0.959468
  H      -0.872055      3.411494     -1.931110
  H       1.600247      1.195923     -0.736783
  O      -6.228386     -1.169211     -1.775378
  H      -5.894075     -1.940345     -2.252940
  H      -7.003723     -1.476711     -1.286877
  O      -5.200577      1.820896     -1.189987
  H      -5.821670      2.256580     -0.592965
  H      -5.543456      1.962450     -2.081144
  O      -6.001775     -0.253233      0.953997
  H      -6.686731     -0.935884      0.969998
  H      -6.470986      0.590098      1.020493
  O      -3.456427     -0.647272     -2.001689
  H      -3.796054     -0.926239     -2.862707
  H      -2.836554     -1.337581     -1.726513
34
Coordinates from ORCA-job cu_P0_cplx E -2630.963976224854
  Cu     -4.844884     -0.316275     -0.645930
  C       3.495140     -1.603317      0.912138
  O       2.463342     -0.722060      0.462892
  C       1.227680     -1.015242      0.857112
  O       0.967817     -1.973357      1.558318
  C       0.221068     -0.060566      0.355341
  C      -1.108012     -0.272145      0.700494
  C      -2.071422      0.610250      0.259668
  O      -3.403625      0.441213      0.598151
  C      -1.748490      1.699128     -0.544498
  O      -2.620993      2.608165     -1.007870
  C      -0.404913      1.888557     -0.894323
  O      -0.065261      2.941684     -1.680556
  C       0.572009      1.023230     -0.447957
  H       3.543432     -1.608304      2.001407
  H       4.419133     -1.208665      0.497108
  H       3.318996     -2.614527      0.544547
  H      -1.393744     -1.115360      1.317882
  H      -3.473403     -0.002614      1.456660
  H      -3.559309      2.313586     -0.959406
  H      -0.874145      3.411922     -1.928780
  H       1.600137      1.197784     -0.735528
  O      -6.229350     -1.166589     -1.776435
  H      -5.897335     -1.939435     -2.252783
  H      -7.007434     -1.469861     -1.289580
  O      -5.199040      1.819565     -1.191196
  H      -5.820532      2.257383     -0.596107
  H      -5.540493      1.959301     -2.083101
  O      -6.003802     -0.250259      0.952762
  H      -6.689950     -0.931891      0.968187
  H      -6.471796      0.593919      1.018565
  O      -3.455250     -0.652792     -1.998800
  H      -3.794007     -0.932492     -2.859711
  H      -2.835542     -1.342428     -1.721726
34
Coordinates from ORCA-job cu_P0_cplx E -2630.963958970889
  Cu     -4.844420     -0.317047     -0.644919
  C       3.495186     -1.603753      0.910338
  O       2.463546     -0.721684      0.462274
  C       1.228048     -1.014615      0.857283
  O       0.968254     -1.972939      1.558060
  C       0.221337     -0.059644      0.356386
  C      -1.107645     -0.271715      0.701801
  C      -2.071428      0.610168      0.261048
  O      -3.403650      0.439905      0.599091
  C      -1.748994      1.699115     -0.543110
  O      -2.621550      2.608182     -1.006318
  C      -0.405455      1.889190     -0.892962
  O      -0.066441      2.943103     -1.678528
  C       0.571921      1.024218     -0.446845
  H       3.544361     -1.609313      1.999579
  H       4.419091     -1.209348      0.494831
  H       3.318033     -2.614706      0.542258
  H      -1.392533     -1.115358      1.318861
  H      -3.473002     -0.002934      1.458118
  H      -3.559803      2.313187     -0.959432
  H      -0.875780      3.412394     -1.927103
  H       1.599987      1.199266     -0.734436
  O      -6.228554     -1.165849     -1.777285
  H      -5.898449     -1.941195     -2.251001
  H      -7.009469     -1.464716     -1.292118
  O      -5.198374      1.818119     -1.193222
  H      -5.820810      2.257723     -0.600599
  H      -5.538008      1.955751     -2.086106
  O      -6.004040     -0.249300      0.952492
  H      -6.691223     -0.930106      0.966569
  H      -6.470436      0.595830      1.019040
  O      -3.455372     -0.655552     -1.997814
  H      -3.794204     -0.935099     -2.858584
  H      -2.834103     -1.343772     -1.720702
34
Coordinates from ORCA-job cu_P0_cplx E -2630.963995526577
  Cu     -4.844007     -0.317380     -0.644735
  C       3.495116     -1.604216      0.908692
  O       2.463597     -0.721443      0.461817
  C       1.228147     -1.014246      0.857408
  O       0.968489     -1.972762      1.557945
  C       0.221373     -0.058987      0.357327
  C      -1.107551     -0.271479      0.702703
  C      -2.071442      0.610283      0.261852
  O      -3.403766      0.439488      0.599145
  C      -1.749188      1.699361     -0.542104
  O      -2.621965      2.608209     -1.005408
  C      -0.405628      1.889978     -0.891788
  O      -0.066903      2.943974     -1.677096
  C       0.571811      1.025059     -0.445740
  H       3.545080     -1.610382      1.997860
  H       4.418955     -1.210096      0.492617
  H       3.316997     -2.614905      0.540294
  H      -1.392313     -1.115202      1.319642
  H      -3.473194     -0.002487      1.458599
  H      -3.560314      2.313125     -0.959251
  H      -0.876325      3.413105     -1.925640
  H       1.599855      1.200232     -0.733385
  O      -6.227975     -1.165148     -1.777837
  H      -5.899205     -1.942225     -2.249727
  H      -7.009850     -1.461368     -1.292692
  O      -5.198352      1.817760     -1.194500
  H      -5.821803      2.257981     -0.603353
  H      -5.536841      1.953806     -2.088027
  O      -6.004275     -0.248608      0.952212
  H      -6.691473     -0.929503      0.965968
  H      -6.470459      0.596801      1.017835
  O      -3.454956     -0.657892     -1.997185
  H      -3.793031     -0.938779     -2.857808
  H      -2.832582     -1.344551     -1.718695
34
Coordinates from ORCA-job cu_P0_cplx E -2630.963975133710
  Cu     -4.843559     -0.317767     -0.644348
  C       3.494736     -1.605406      0.906299
  O       2.463429     -0.721408      0.461419
  C       1.228083     -1.013903      0.857805
  O       0.968699     -1.972574      1.558237
  C       0.221238     -0.058201      0.358759
  C      -1.107547     -0.270910      0.704253
  C      -2.071515      0.610802      0.263165
  O      -3.403976      0.439575      0.599592
  C      -1.749429      1.699900     -0.540640
  O      -2.622546      2.608270     -1.004304
  C      -0.405901      1.890914     -0.890269
  O      -0.067437      2.944891     -1.675438
  C       0.571493      1.025926     -0.444310
  H       3.546073     -1.612568      1.995365
  H       4.418402     -1.211852      0.489284
  H       3.315120     -2.615654      0.537387
  H      -1.392502     -1.114564      1.321233
  H      -3.473611     -0.001279      1.459576
  H      -3.560894      2.313181     -0.958502
  H      -0.876852      3.414146     -1.923744
  H       1.599452      1.200960     -0.732272
  O      -6.226232     -1.166206     -1.778223
  H      -5.898351     -1.946080     -2.246313
  H      -7.009913     -1.458842     -1.293792
  O      -5.198818      1.816954     -1.196625
  H      -5.824335      2.257743     -0.608066
  H      -5.534909      1.950926     -2.091381
  O      -6.004324     -0.247917      0.952104
  H      -6.692352     -0.927923      0.964768
  H      -6.469251      0.598201      1.017423
  O      -3.454647     -0.658119     -1.996949
  H      -3.792165     -0.941693     -2.856954
  H      -2.829635     -1.342014     -1.717592
34
Coordinates from ORCA-job cu_P0_cplx E -2630.963980403961
  Cu     -4.843509     -0.317796     -0.644346
  C       3.495080     -1.605164      0.906029
  O       2.463642     -0.721226      0.461444
  C       1.228407     -1.013664      0.858211
  O       0.969335     -1.972073      1.559213
  C       0.221403     -0.058237      0.359043
  C      -1.107328     -0.271019      0.704495
  C      -2.071384      0.610579      0.263195
  O      -3.403856      0.439521      0.599594
  C      -1.749333      1.699595     -0.540657
  O      -2.622625      2.607759     -1.004498
  C      -0.405829      1.890780     -0.890218
  O      -0.067355      2.944801     -1.675344
  C       0.571549      1.025879     -0.444133
  H       3.547012     -1.612028      1.995057
  H       4.418546     -1.211928      0.488350
  H       3.315175     -2.615508      0.537578
  H      -1.392430     -1.114461      1.321716
  H      -3.473742     -0.001201      1.459656
  H      -3.560938      2.312828     -0.958167
  H      -0.876689      3.414327     -1.923397
  H       1.599513      1.200938     -0.732101
  O      -6.226408     -1.164928     -1.778558
  H      -5.898810     -1.944956     -2.246618
  H      -7.010137     -1.457327     -1.294104
  O      -5.199111      1.817024     -1.196713
  H      -5.825125      2.257691     -0.608622
  H      -5.534772      1.950389     -2.091738
  O      -6.004414     -0.248084      0.952304
  H      -6.692181     -0.928304      0.964974
  H      -6.469817      0.597806      1.016919
  O      -3.454177     -0.658876     -1.996505
  H      -3.791859     -0.940159     -2.857266
  H      -2.831808     -1.345469     -1.717847
34
Coordinates from ORCA-job cu_P0_cplx E -2630.963973951468
  Cu     -4.843261     -0.317944     -0.644000
  C       3.495061     -1.605271      0.904742
  O       2.463423     -0.721338      0.460799
  C       1.228397     -1.013623      0.858173
  O       0.969670     -1.971775      1.559709
  C       0.221228     -0.058378      0.359083
  C      -1.107472     -0.271279      0.704422
  C      -2.071513      0.610566      0.263442
  O      -3.403945      0.439872      0.600062
  C      -1.749410      1.699834     -0.540057
  O      -2.622861      2.608080     -1.003533
  C      -0.405917      1.891157     -0.889567
  O      -0.067323      2.945300     -1.674413
  C       0.571359      1.026048     -0.443756
  H       3.547877     -1.611921      1.993735
  H       4.418239     -1.212341      0.486170
  H       3.314765     -2.615675      0.536713
  H      -1.392795     -1.114723      1.321580
  H      -3.474219     -0.000587      1.460221
  H      -3.561009      2.312758     -0.957392
  H      -0.876527      3.415304     -1.921969
  H       1.599338      1.201092     -0.731675
  O      -6.225873     -1.164333     -1.778744
  H      -5.898430     -1.944939     -2.245879
  H      -7.010303     -1.455732     -1.294783
  O      -5.199127      1.816576     -1.197711
  H      -5.826663      2.256956     -0.611030
  H      -5.533174      1.948886     -2.093488
  O      -6.005080     -0.247539      0.952250
  H      -6.692948     -0.927594      0.964966
  H      -6.470686      0.598281      1.015916
  O      -3.453048     -0.659838     -1.995062
  H      -3.790330     -0.941421     -2.855985
  H      -2.831421     -1.346953     -1.715995
34
Coordinates from ORCA-job cu_P0_cplx E -2630.963981567218
  Cu     -4.843185     -0.318011     -0.643768
  C       3.494952     -1.605476      0.904730
  O       2.463307     -0.721615      0.460682
  C       1.228305     -1.013731      0.858173
  O       0.969546     -1.971747      1.559913
  C       0.221144     -0.058493      0.358934
  C      -1.107571     -0.271284      0.704308
  C      -2.071544      0.610653      0.263421
  O      -3.403965      0.440093      0.600185
  C      -1.749410      1.699982     -0.540039
  O      -2.622854      2.608284     -1.003401
  C      -0.405946      1.891181     -0.889613
  O      -0.067227      2.945362     -1.674416
  C       0.571297      1.025958     -0.443873
  H       3.547947     -1.611820      1.993723
  H       4.418136     -1.212747      0.485928
  H       3.314554     -2.615960      0.536999
  H      -1.392989     -1.114751      1.321431
  H      -3.474432     -0.000334      1.460339
  H      -3.560935      2.312874     -0.956984
  H      -0.876339      3.415672     -1.921693
  H       1.599301      1.200980     -0.731719
  O      -6.225392     -1.164964     -1.778570
  H      -5.897832     -1.946112     -2.244700
  H      -7.010443     -1.455462     -1.295032
  O      -5.199307      1.816425     -1.197877
  H      -5.827626      2.256602     -0.611950
  H      -5.532602      1.948133     -2.093997
  O      -6.004864     -0.247860      0.952451
  H      -6.693222     -0.927424      0.965086
  H      -6.469978      0.598203      1.016372
  O      -3.453187     -0.658953     -1.995240
  H      -3.790623     -0.940405     -2.856123
  H      -2.830994     -1.345747     -1.716735
34
Coordinates from ORCA-job cu_P0_cplx E -2630.963996813458
  Cu     -4.842543     -0.318316     -0.643183
  C       3.494137     -1.606564      0.902971
  O       2.462523     -0.722277      0.459733
  C       1.227742     -1.013682      0.858249
  O       0.968988     -1.971413      1.560383
  C       0.220685     -0.058064      0.359399
  C      -1.108055     -0.270492      0.705036
  C      -2.071846      0.611638      0.264326
  O      -3.404325      0.441156      0.601008
  C      -1.749618      1.700916     -0.539215
  O      -2.622987      2.609274     -1.002617
  C      -0.406190      1.891838     -0.888885
  O      -0.067237      2.945990     -1.673704
  C       0.570963      1.026381     -0.443314
  H       3.548344     -1.612603      1.991905
  H       4.417123     -1.214468      0.483123
  H       3.312836     -2.617058      0.535671
  H      -1.393645     -1.114062      1.321954
  H      -3.475186      0.000927      1.461239
  H      -3.560960      2.313651     -0.956165
  H      -0.876215      3.416631     -1.920753
  H       1.599000      1.201304     -0.731137
  O      -6.223791     -1.166040     -1.778563
  H      -5.895875     -1.948037     -2.242976
  H      -7.009907     -1.455227     -1.295916
  O      -5.199295      1.815713     -1.199140
  H      -5.829696      2.255251     -0.615051
  H      -5.530782      1.946012     -2.096101
  O      -6.004797     -0.247956      0.952504
  H      -6.693838     -0.926840      0.964906
  H      -6.469224      0.598512      1.016186
  O      -3.451948     -0.658853     -1.994282
  H      -3.789057     -0.940641     -2.855142
  H      -2.829300     -1.345092     -1.715505
34
Coordinates from ORCA-job cu_P0_cplx E -2630.963980529943
  Cu     -4.841821     -0.318740     -0.642470
  C       3.493321     -1.607839      0.900860
  O       2.461829     -0.722979      0.458434
  C       1.227256     -1.013509      0.858151
  O       0.968481     -1.970945      1.560641
  C       0.220333     -0.057343      0.359975
  C      -1.108433     -0.269667      0.705784
  C      -2.072132      0.612651      0.265375
  O      -3.404671      0.442084      0.601834
  C      -1.749894      1.702068     -0.538006
  O      -2.623265      2.610519     -1.001241
  C      -0.406458      1.892979     -0.887664
  O      -0.067401      2.947261     -1.672316
  C       0.570669      1.027281     -0.442432
  H       3.548817     -1.613463      1.989738
  H       4.416107     -1.216541      0.479834
  H       3.310872     -2.618328      0.534130
  H      -1.394030     -1.113436      1.322371
  H      -3.475749      0.002144      1.462199
  H      -3.561127      2.314431     -0.955361
  H      -0.876347      3.418070     -1.919158
  H       1.598698      1.202165     -0.730284
  O      -6.222177     -1.166947     -1.778690
  H      -5.894447     -1.950479     -2.240589
  H      -7.009847     -1.453686     -1.297139
  O      -5.198880      1.814690     -1.200990
  H      -5.831683      2.253774     -0.619204
  H      -5.528123      1.943322     -2.099016
  O      -6.004841     -0.247909      0.952542
  H      -6.694685     -0.926006      0.964300
  H      -6.468282      0.599108      1.016102
  O      -3.450838     -0.659744     -1.993099
  H      -3.787658     -0.942244     -2.853821
  H      -2.827572     -1.345235     -1.713844
34
Coordinates from ORCA-job cu_P0_cplx E -2630.963977929117
  Cu     -4.841932     -0.318589     -0.642694
  C       3.493431     -1.607551      0.901565
  O       2.461983     -0.722846      0.458682
  C       1.227283     -1.013606      0.857981
  O       0.968392     -1.971181      1.560232
  C       0.220407     -0.057473      0.359728
  C      -1.108349     -0.269828      0.705519
  C      -2.072059      0.612482      0.265096
  O      -3.404592      0.441932      0.601558
  C      -1.749818      1.701877     -0.538298
  O      -2.623179      2.610339     -1.001538
  C      -0.406375      1.892789     -0.887973
  O      -0.067375      2.947023     -1.672682
  C       0.570749      1.027101     -0.442730
  H       3.548325     -1.613240      1.990479
  H       4.416335     -1.215984      0.481041
  H       3.311354     -2.618059      0.534672
  H      -1.393816     -1.113571      1.322170
  H      -3.475505      0.001825      1.461851
  H      -3.561112      2.314366     -0.955732
  H      -0.876357      3.417654     -1.919746
  H       1.598755      1.201929     -0.730658
  O      -6.222625     -1.166772     -1.778551
  H      -5.894802     -1.949768     -2.241298
  H      -7.009679     -1.454383     -1.296524
  O      -5.198760      1.815037     -1.200445
  H      -5.830754      2.254177     -0.617793
  H      -5.528936      1.944219     -2.098061
  O      -6.004810     -0.247926      0.952510
  H      -6.694196     -0.926485      0.964450
  H      -6.468711      0.598846      1.016075
  O      -3.451179     -0.659595     -1.993520
  H      -3.788104     -0.942094     -2.854203
  H      -2.827966     -1.345136     -1.714217
34
Coordinates from ORCA-job cu_P0_cplx E -2630.963962323738
  Cu     -4.841919     -0.318436     -0.642950
  C       3.493474     -1.607399      0.901849
  O       2.462014     -0.722814      0.458672
  C       1.227287     -1.013569      0.858013
  O       0.968417     -1.971155      1.560247
  C       0.220421     -0.057436      0.359803
  C      -1.108324     -0.269800      0.705623
  C      -2.072046      0.612483      0.265125
  O      -3.404608      0.442000      0.601495
  C      -1.749793      1.701753     -0.538380
  O      -2.623162      2.610155     -1.001736
  C      -0.406359      1.892639     -0.888099
  O      -0.067408      2.946735     -1.672971
  C       0.570764      1.027031     -0.442784
  H       3.548128     -1.612898      1.990767
  H       4.416389     -1.215768      0.481414
  H       3.311546     -2.617985      0.535104
  H      -1.393649     -1.113538      1.322354
  H      -3.475405      0.001483      1.461593
  H      -3.561150      2.314255     -0.956094
  H      -0.876429      3.417096     -1.920407
  H       1.598745      1.201781     -0.730855
  O      -6.222836     -1.166531     -1.778563
  H      -5.894788     -1.948971     -2.242109
  H      -7.009335     -1.455107     -1.296218
  O      -5.198618      1.815365     -1.200081
  H      -5.829945      2.254413     -0.616607
  H      -5.529772      1.944887     -2.097309
  O      -6.004732     -0.247912      0.952368
  H      -6.693813     -0.926771      0.964364
  H      -6.468919      0.598693      1.016094
  O      -3.451140     -0.659656     -1.993731
  H      -3.788194     -0.941482     -2.854598
  H      -2.828815     -1.346035     -1.714448
34
Coordinates from ORCA-job cu_P0_cplx E -2630.963969660412
  Cu     -4.841772     -0.318372     -0.642998
  C       3.493260     -1.607518      0.902055
  O       2.461857     -0.723037      0.458504
  C       1.227079     -1.013704      0.857806
  O       0.968128     -1.971226      1.560099
  C       0.220296     -0.057521      0.359559
  C      -1.108452     -0.269754      0.705407
  C      -2.072087      0.612657      0.264989
  O      -3.404659      0.442370      0.601409
  C      -1.749748      1.701929     -0.538465
  O      -2.623100      2.610414     -1.001707
  C      -0.406299      1.892713     -0.888204
  O      -0.067267      2.946844     -1.673012
  C       0.570731      1.026949     -0.442984
  H       3.547711     -1.612737      1.990990
  H       4.416217     -1.215965      0.481663
  H       3.311407     -2.618209      0.535537
  H      -1.393790     -1.113475      1.322140
  H      -3.475435      0.001711      1.461452
  H      -3.561099      2.314541     -0.956159
  H      -0.876255      3.417237     -1.920507
  H       1.598719      1.201605     -0.731084
  O      -6.222658     -1.166885     -1.778356
  H      -5.894428     -1.949287     -2.241840
  H      -7.008996     -1.455626     -1.295863
  O      -5.198527      1.815557     -1.199937
  H      -5.829830      2.254372     -0.616252
  H      -5.530027      1.944942     -2.097057
  O      -6.004570     -0.248057      0.952392
  H      -6.693331     -0.927240      0.964631
  H      -6.469135      0.598354      1.016009
  O      -3.451103     -0.659291     -1.993897
  H      -3.788166     -0.941212     -2.854727
  H      -2.828649     -1.345572     -1.714645
