34
Coordinates from ORCA-job cu_P0_cplx E -2630.963969660412
  Cu         -4.84177175258589     -0.31837212778493     -0.64299788439185
  C           3.49326048864991     -1.60751778215170      0.90205524423019
  O           2.46185738218369     -0.72303652169772      0.45850426710592
  C           1.22707874509817     -1.01370413807211      0.85780593683049
  O           0.96812813008065     -1.97122578486263      1.56009937020203
  C           0.22029606718662     -0.05752133389962      0.35955870099379
  C          -1.10845215355092     -0.26975394121604      0.70540656019245
  C          -2.07208679320008      0.61265700000578      0.26498860486434
  O          -3.40465854040474      0.44237031543829      0.60140931451054
  C          -1.74974839257899      1.70192923063014     -0.53846523371513
  O          -2.62309969042615      2.61041359351629     -1.00170738613579
  C          -0.40629908842284      1.89271341210925     -0.88820424926022
  O          -0.06726676007570      2.94684362459637     -1.67301198442228
  C           0.57073087895301      1.02694872435507     -0.44298369821413
  H           3.54771084264274     -1.61273674756361      1.99098993392743
  H           4.41621722177020     -1.21596539082757      0.48166271859576
  H           3.31140683641927     -2.61820923711542      0.53553736758572
  H          -1.39379035783440     -1.11347493721819      1.32214028874602
  H          -3.47543463259835      0.00171091234927      1.46145157169319
  H          -3.56109925883024      2.31454111277525     -0.95615943397374
  H          -0.87625537441336      3.41723678281802     -1.92050664070487
  H           1.59871861050496      1.20160456821585     -0.73108436197514
  O          -6.22265784399922     -1.16688471549092     -1.77835645744431
  H          -5.89442798020989     -1.94928734356057     -2.24183998166486
  H          -7.00899635476030     -1.45562606963598     -1.29586309590282
  O          -5.19852650036997      1.81555732065969     -1.19993715348225
  H          -5.82982960829214      2.25437177187004     -0.61625248502542
  H          -5.53002684379583      1.94494200423532     -2.09705694844004
  O          -6.00457010405812     -0.24805663712261      0.95239243308384
  H          -6.69333098980959     -0.92724046447197      0.96463122967055
  H          -6.46913467691823      0.59835375630566      1.01600856464910
  O          -3.45110344241346     -0.65929063424492     -1.99389686044348
  H          -3.78816614821010     -0.94121225153606     -2.85472652421279
  H          -2.82864860573041     -1.34557198140772     -1.71464549747222
