20
Coordinates from ORCA-job lig_P1_LH1m E -684.897174473208
  C           2.65936152859610     -2.98179385819318      0.84250658264602
  O           1.43600280753864     -2.30850379813674      0.55830485178811
  C           1.51888608321955     -0.98081420110442      0.37181566902970
  O           2.58890326724060     -0.39267123548081      0.44370730335474
  C           0.23682501757851     -0.35368517698778      0.08712704543849
  C          -0.95307929104378     -1.09510797968589      0.02126748646468
  C          -2.13735366009414     -0.45261955417553     -0.24982016281764
  O          -3.32312182176205     -1.13722939121047     -0.32518666899731
  C          -2.21030666503047      0.94360616759204     -0.46801979874734
  O          -3.32739315975022      1.53462814566514     -0.72018394503294
  C          -0.98880685630928      1.65455667714276     -0.39469341103624
  O          -1.06326822017506      3.00664940607252     -0.60877632299306
  C           0.20603541803758      1.03246452240523     -0.12579836960602
  H           3.36460157481203     -2.86820198171757      0.01794094754095
  H           2.39782157718590     -4.03058262052878      0.96496053180409
  H           3.10695902409376     -2.60034528060803      1.76135119225087
  H          -0.94946156381573     -2.16571657552467      0.18216307795043
  H          -3.98316312997085     -0.45191237706499     -0.53022414807919
  H          -2.00808145898702      3.17241826619130     -0.77380165886249
  H           1.12134280863593      1.61032725534984     -0.07775595209585
