20
Coordinates from ORCA-job lig_P1_LH1m E -684.896441070056
  C       2.655231     -2.989113      0.843084
  O       1.430609     -2.316193      0.559900
  C       1.508445     -0.977935      0.369837
  O       2.591549     -0.399647      0.442686
  C       0.241008     -0.352217      0.087890
  C      -0.950884     -1.094096      0.022154
  C      -2.135392     -0.464036     -0.247956
  O      -3.324394     -1.152204     -0.323007
  C      -2.203929      0.941062     -0.467214
  O      -3.319147      1.528476     -0.719671
  C      -0.980184      1.664450     -0.395077
  O      -1.058366      3.021218     -0.610821
  C       0.205090      1.036885     -0.125680
  H       3.358374     -2.849304      0.020047
  H       2.388238     -4.034802      0.959537
  H       3.099108     -2.589729      1.756759
  H      -0.935570     -2.160076      0.183467
  H      -3.993388     -0.468444     -0.525870
  H      -2.007290      3.189279     -0.778644
  H       1.123595      1.601892     -0.074535
20
Coordinates from ORCA-job lig_P1_LH1m E -684.897015311964
  C       2.658585     -2.983659      0.843315
  O       1.432087     -2.313346      0.559163
  C       1.512316     -0.980650      0.369554
  O       2.589382     -0.399602      0.443627
  C       0.238685     -0.354367      0.086808
  C      -0.954143     -1.094397      0.020661
  C      -2.137868     -0.456724     -0.249531
  O      -3.324815     -1.140285     -0.325037
  C      -2.208342      0.943144     -0.467772
  O      -3.323191      1.532991     -0.718362
  C      -0.985252      1.658336     -0.395029
  O      -1.061962      3.010874     -0.609119
  C       0.204685      1.033377     -0.126608
  H       3.363816     -2.854841      0.020716
  H       2.395291     -4.031518      0.962403
  H       3.104335     -2.592119      1.759097
  H      -0.943967     -2.165040      0.182131
  H      -3.985673     -0.456048     -0.528083
  H      -2.006352      3.175688     -0.774473
  H       1.125086      1.603654     -0.076577
20
Coordinates from ORCA-job lig_P1_LH1m E -684.897156717199
  C       2.660398     -2.981766      0.840633
  O       1.434429     -2.309620      0.560377
  C       1.516587     -0.980368      0.376631
  O       2.588654     -0.395340      0.445453
  C       0.237007     -0.354165      0.090358
  C      -0.954786     -1.094291      0.023711
  C      -2.138276     -0.452195     -0.249118
  O      -3.323942     -1.134686     -0.325097
  C      -2.210643      0.943941     -0.468794
  O      -3.325827      1.534601     -0.723267
  C      -0.988606      1.654443     -0.395477
  O      -1.064065      3.005019     -0.611257
  C       0.205054      1.032170     -0.124998
  H       3.365646     -2.860865      0.017184
  H       2.398875     -4.031065      0.958113
  H       3.109014     -2.601854      1.759594
  H      -0.948897     -2.165360      0.186451
  H      -3.982942     -0.449602     -0.530847
  H      -2.008318      3.169790     -0.776716
  H       1.123340      1.606680     -0.076049
20
Coordinates from ORCA-job lig_P1_LH1m E -684.897150018514
  C       2.659180     -2.980628      0.846941
  O       1.436328     -2.308872      0.555339
  C       1.521066     -0.982615      0.360339
  O       2.589316     -0.393365      0.440820
  C       0.238004     -0.355167      0.080388
  C      -0.952837     -1.095826      0.015626
  C      -2.137506     -0.451998     -0.251467
  O      -3.323163     -1.135287     -0.326176
  C      -2.211233      0.944256     -0.466318
  O      -3.328447      1.536286     -0.713622
  C      -0.989540      1.654157     -0.393518
  O      -1.065137      3.005878     -0.604198
  C       0.206202      1.031698     -0.128779
  H       3.367716     -2.872298      0.024583
  H       2.396581     -4.028689      0.974117
  H       3.104781     -2.595259      1.765068
  H      -0.947916     -2.167028      0.174336
  H      -3.983193     -0.449373     -0.528697
  H      -2.010293      3.171573     -0.766910
  H       1.122792      1.608023     -0.080988
20
Coordinates from ORCA-job lig_P1_LH1m E -684.897173798291
  C       2.659532     -2.981663      0.842405
  O       1.435964     -2.308389      0.558625
  C       1.519218     -0.980673      0.372098
  O       2.588933     -0.392420      0.443749
  C       0.236850     -0.353826      0.087277
  C      -0.953370     -1.095048      0.021461
  C      -2.137552     -0.452298     -0.249788
  O      -3.323261     -1.136429     -0.325100
  C      -2.210590      0.943775     -0.468358
  O      -3.327533      1.535095     -0.719814
  C      -0.989016      1.654415     -0.394869
  O      -1.063856      3.006148     -0.609122
  C       0.205924      1.032431     -0.125858
  H       3.365389     -2.867548      0.018464
  H       2.397912     -4.030609      0.963653
  H       3.107238     -2.601654      1.761789
  H      -0.948987     -2.165592      0.182762
  H      -3.983248     -0.451084     -0.530571
  H      -2.008781      3.171683     -0.774313
  H       1.121937      1.609152     -0.077605
20
Coordinates from ORCA-job lig_P1_LH1m E -684.897163138556
  C       2.659391     -2.981727      0.842421
  O       1.435914     -2.308485      0.558545
  C       1.518932     -0.980714      0.372016
  O       2.588881     -0.392585      0.443739
  C       0.236785     -0.353737      0.087267
  C      -0.953251     -1.095085      0.021378
  C      -2.137474     -0.452542     -0.249728
  O      -3.323250     -1.136965     -0.325105
  C      -2.210428      0.943721     -0.467843
  O      -3.327229      1.534702     -0.720991
  C      -0.988822      1.654572     -0.394770
  O      -1.063483      3.006533     -0.609012
  C       0.205982      1.032471     -0.125863
  H       3.364919     -2.867542      0.018185
  H       2.397893     -4.030625      0.964091
  H       3.106989     -2.600992      1.761572
  H      -0.949093     -2.165660      0.182443
  H      -3.983330     -0.451621     -0.529969
  H      -2.008393      3.172192     -0.773749
  H       1.121771      1.609556     -0.077743
20
Coordinates from ORCA-job lig_P1_LH1m E -684.897166746106
  C       2.659321     -2.981779      0.842461
  O       1.435947     -2.308519      0.558402
  C       1.518806     -0.980777      0.371903
  O       2.588867     -0.392675      0.443695
  C       0.236767     -0.353676      0.087175
  C      -0.953127     -1.095108      0.021352
  C      -2.137376     -0.452675     -0.249791
  O      -3.323181     -1.137306     -0.325150
  C      -2.210248      0.943586     -0.468103
  O      -3.327345      1.534667     -0.720049
  C      -0.988736      1.654614     -0.394736
  O      -1.063226      3.006740     -0.608864
  C       0.206031      1.032488     -0.125792
  H       3.364576     -2.867866      0.017945
  H       2.397876     -4.030615      0.964662
  H       3.106866     -2.600455      1.761393
  H      -0.949347     -2.165695      0.182325
  H      -3.983216     -0.452038     -0.530289
  H      -2.008028      3.172440     -0.773967
  H       1.121476      1.610115     -0.077688
20
Coordinates from ORCA-job lig_P1_LH1m E -684.897174473208
  C       2.659362     -2.981794      0.842507
  O       1.436003     -2.308504      0.558305
  C       1.518886     -0.980814      0.371816
  O       2.588903     -0.392671      0.443707
  C       0.236825     -0.353685      0.087127
  C      -0.953079     -1.095108      0.021267
  C      -2.137354     -0.452620     -0.249820
  O      -3.323122     -1.137229     -0.325187
  C      -2.210307      0.943606     -0.468020
  O      -3.327393      1.534628     -0.720184
  C      -0.988807      1.654557     -0.394693
  O      -1.063268      3.006649     -0.608776
  C       0.206035      1.032465     -0.125798
  H       3.364602     -2.868202      0.017941
  H       2.397822     -4.030583      0.964961
  H       3.106959     -2.600345      1.761351
  H      -0.949462     -2.165717      0.182163
  H      -3.983163     -0.451912     -0.530224
  H      -2.008081      3.172418     -0.773802
  H       1.121343      1.610327     -0.077756
