21
Coordinates from ORCA-job lig_P0_LH2 E -685.358774487376
  C       3.993516      0.127370      0.126195
  O       2.595912      0.416061      0.084236
  C       1.764593     -0.625190      0.037300
  O       2.162050     -1.778793      0.027905
  C       0.345911     -0.238902     -0.000101
  C      -0.044720      1.096927      0.012746
  C      -1.391328      1.421577     -0.019519
  O      -1.772718      2.720683     -0.006726
  C      -2.352380      0.403642     -0.063799
  O      -3.665786      0.756224     -0.091480
  C      -1.952837     -0.937574     -0.076598
  O      -2.950234     -1.865524     -0.118590
  C      -0.608475     -1.254830     -0.045955
  H       4.286671     -0.431821     -0.763441
  H       4.225762     -0.468150      1.010276
  H       4.489513      1.092076      0.163009
  H       0.685407      1.886952      0.048513
  H      -2.743919      2.768998     -0.031975
  H      -4.210006     -0.047938     -0.119818
  H      -2.585439     -2.761937     -0.116910
  H      -0.271494     -2.279850     -0.055268
21
Coordinates from ORCA-job lig_P0_LH2 E -685.359244781991
  C       3.988985      0.121673      0.122748
  O       2.592597      0.420193      0.084129
  C       1.765672     -0.621785      0.041106
  O       2.164600     -1.772155      0.033136
  C       0.345204     -0.237360      0.004064
  C      -0.049047      1.097914      0.016107
  C      -1.395268      1.415088     -0.018002
  O      -1.779965      2.716838     -0.005286
  C      -2.349666      0.398375     -0.064270
  O      -3.658831      0.753777     -0.096062
  C      -1.947721     -0.937419     -0.075960
  O      -2.947359     -1.858128     -0.121788
  C      -0.605073     -1.255808     -0.042320
  H       4.281310     -0.436037     -0.767953
  H       4.225272     -0.468357      1.009237
  H       4.492263      1.083904      0.156195
  H       0.680121      1.896052      0.052541
  H      -2.744963      2.765971     -0.030740
  H      -4.202449     -0.044871     -0.125154
  H      -2.579909     -2.749937     -0.120481
  H      -0.275773     -2.287930     -0.051247
21
Coordinates from ORCA-job lig_P0_LH2 E -685.359328151615
  C       3.988421      0.119377      0.121842
  O       2.592452      0.422137      0.082845
  C       1.767468     -0.621158      0.041084
  O       2.165526     -1.770546      0.037105
  C       0.345348     -0.236833      0.004831
  C      -0.050275      1.098225      0.016614
  C      -1.396673      1.411153     -0.017676
  O      -1.781896      2.715387     -0.004670
  C      -2.349244      0.395863     -0.064605
  O      -3.656212      0.753485     -0.096975
  C      -1.945509     -0.937822     -0.076153
  O      -2.947681     -1.855164     -0.123199
  C      -0.602944     -1.256642     -0.041546
  H       4.282752     -0.436415     -0.769078
  H       4.227073     -0.464846      1.011209
  H       4.495575      1.080303      0.153163
  H       0.676554      1.899283      0.053020
  H      -2.746185      2.765753     -0.029140
  H      -4.202802     -0.042870     -0.125100
  H      -2.578601     -2.746408     -0.123205
  H      -0.283148     -2.292262     -0.050365
21
Coordinates from ORCA-job lig_P0_LH2 E -685.359349989282
  C       3.988936      0.119279      0.118011
  O       2.592952      0.422530      0.084154
  C       1.768208     -0.621820      0.049582
  O       2.165516     -1.771064      0.041929
  C       0.345488     -0.236957      0.009939
  C      -0.050107      1.098049      0.021180
  C      -1.396741      1.409640     -0.016075
  O      -1.781142      2.715222     -0.003294
  C      -2.349952      0.395350     -0.065897
  O      -3.656088      0.753934     -0.101400
  C      -1.945024     -0.938196     -0.077076
  O      -2.948185     -1.855329     -0.126838
  C      -0.602125     -1.257009     -0.039263
  H       4.280413     -0.438026     -0.772758
  H       4.232949     -0.458596      1.009938
  H       4.497530      1.079898      0.142757
  H       0.675370      1.899731      0.059630
  H      -2.745700      2.765873     -0.028966
  H      -4.204563     -0.041417     -0.130099
  H      -2.578391     -2.746599     -0.127659
  H      -0.289343     -2.294492     -0.047793
21
Coordinates from ORCA-job lig_P0_LH2 E -685.359345545342
  C       3.989345      0.119670      0.121866
  O       2.593713      0.422569      0.080034
  C       1.769199     -0.622474      0.039369
  O       2.165607     -1.771911      0.041631
  C       0.346003     -0.237116      0.003778
  C      -0.049291      1.097829      0.016149
  C      -1.396346      1.408894     -0.017595
  O      -1.779634      2.715385     -0.004033
  C      -2.351019      0.395403     -0.064853
  O      -3.656890      0.754409     -0.097188
  C      -1.945045     -0.938431     -0.076720
  O      -2.948683     -1.856432     -0.123364
  C      -0.601562     -1.257082     -0.042350
  H       4.286744     -0.435613     -0.768140
  H       4.229041     -0.456599      1.015946
  H       4.498382      1.080109      0.149767
  H       0.675374      1.899669      0.052594
  H      -2.744724      2.765860     -0.026031
  H      -4.206845     -0.040353     -0.122951
  H      -2.578287     -2.747715     -0.126342
  H      -0.295083     -2.296072     -0.051566
21
Coordinates from ORCA-job lig_P0_LH2 E -685.359346273150
  C       3.989237      0.119846      0.120178
  O       2.593495      0.422249      0.081635
  C       1.768566     -0.622335      0.043978
  O       2.165637     -1.771754      0.041911
  C       0.345859     -0.237154      0.006363
  C      -0.049445      1.097792      0.018356
  C      -1.396310      1.409706     -0.016944
  O      -1.779882      2.715513     -0.003680
  C      -2.350820      0.395846     -0.065393
  O      -3.657011      0.754333     -0.099180
  C      -1.945285     -0.938095     -0.076931
  O      -2.948027     -1.856573     -0.124737
  C      -0.602025     -1.256782     -0.041153
  H       4.283696     -0.437272     -0.769743
  H       4.230400     -0.457001      1.013574
  H       4.497701      1.080503      0.146133
  H       0.675783      1.899291      0.055815
  H      -2.744827      2.765722     -0.026945
  H      -4.205986     -0.040923     -0.125921
  H      -2.577841     -2.747781     -0.127129
  H      -0.292914     -2.295131     -0.050188
21
Coordinates from ORCA-job lig_P0_LH2 E -685.359350229427
  C       3.989263      0.119947      0.120009
  O       2.593538      0.422155      0.081479
  C       1.768521     -0.622384      0.044333
  O       2.165735     -1.771789      0.042337
  C       0.345931     -0.237219      0.006509
  C      -0.049428      1.097705      0.018527
  C      -1.396266      1.409804     -0.016888
  O      -1.779798      2.715535     -0.003627
  C      -2.350920      0.395988     -0.065506
  O      -3.657108      0.754413     -0.099501
  C      -1.945328     -0.937946     -0.076994
  O      -2.947730     -1.856746     -0.124812
  C      -0.602064     -1.256664     -0.041115
  H       4.283481     -0.437880     -0.769560
  H       4.230409     -0.456455      1.013713
  H       4.497648      1.080645      0.145278
  H       0.675801      1.899209      0.056126
  H      -2.744762      2.765621     -0.026560
  H      -4.206033     -0.040875     -0.125967
  H      -2.577423     -2.747881     -0.127580
  H      -0.293467     -2.295183     -0.050199
21
Coordinates from ORCA-job lig_P0_LH2 E -685.359348074968
  C       3.989313      0.120056      0.119842
  O       2.593591      0.422104      0.081104
  C       1.768526     -0.622418      0.044521
  O       2.165870     -1.771807      0.043052
  C       0.346036     -0.237313      0.006591
  C      -0.049442      1.097589      0.018640
  C      -1.396227      1.409835     -0.016844
  O      -1.779733      2.715520     -0.003569
  C      -2.351011      0.396080     -0.065655
  O      -3.657151      0.754524     -0.099892
  C      -1.945367     -0.937806     -0.077073
  O      -2.947445     -1.856884     -0.124890
  C      -0.602078     -1.256573     -0.041072
  H       4.283427     -0.438725     -0.769170
  H       4.230395     -0.455632      1.014035
  H       4.497622      1.080797      0.144201
  H       0.675742      1.899154      0.056370
  H      -2.744717      2.765520     -0.025841
  H      -4.206118     -0.040742     -0.125859
  H      -2.576993     -2.747942     -0.128297
  H      -0.294242     -2.295337     -0.050193
