21
Coordinates from ORCA-job lig_P0_LH2 E -685.359348074968
  C           3.98931315407716      0.12005618445016      0.11984211946135
  O           2.59359084397892      0.42210369277165      0.08110370151054
  C           1.76852559498270     -0.62241816992900      0.04452056897821
  O           2.16586973165571     -1.77180693756484      0.04305165092783
  C           0.34603642338576     -0.23731263955890      0.00659060774271
  C          -0.04944158813061      1.09758945599495      0.01863984393054
  C          -1.39622654675650      1.40983514775481     -0.01684369351994
  O          -1.77973254784150      2.71552010016990     -0.00356859298351
  C          -2.35101056344630      0.39608031734307     -0.06565549075784
  O          -3.65715081063923      0.75452408567324     -0.09989187354135
  C          -1.94536655072658     -0.93780579556374     -0.07707260651576
  O          -2.94744454490498     -1.85688428557235     -0.12489018376145
  C          -0.60207800327457     -1.25657303802901     -0.04107153762232
  H           4.28342663965887     -0.43872514118823     -0.76917033547043
  H           4.23039456813905     -0.45563221044454      1.01403508073003
  H           4.49762155640636      1.08079724015089      0.14420076749933
  H           0.67574242803125      1.89915431625799      0.05636956617688
  H          -2.74471704558016      2.76551966867085     -0.02584085739060
  H          -4.20611832966801     -0.04074247697488     -0.12585888747648
  H          -2.57699288638588     -2.74794210153174     -0.12829694842151
  H          -0.29424156296144     -2.29533741288029     -0.05019288949624
