33
Coordinates from ORCA-job pb_P1_cplx E -1183.169727337798
  Pb         -5.90904554103440      0.21669283919132      0.02834352927034
  C           3.39179597496734     -0.53508982698904      0.50709197928403
  O           2.07604126429792     -0.14088695179082      0.11832357038895
  C           1.07199040083261     -0.85851942336133      0.62825526519341
  O           1.26159390529373     -1.79343791466977      1.38627674975976
  C          -0.24959619680527     -0.40643541210936      0.17976676764474
  C          -1.37045629138576     -1.09913034173151      0.63858835337811
  C          -2.62554203050888     -0.70693123300895      0.22811730492080
  O          -3.77917864772109     -1.33906901042297      0.61554573167379
  C          -2.81533596153061      0.37281513876713     -0.64466672296715
  O          -3.99524662132817      0.76750186442983     -1.06169051549233
  C          -1.66682120340762      1.05586269581298     -1.08513224139478
  O          -1.84810834592202      2.11605237201617     -1.92349921810847
  C          -0.40279727003939      0.67826413476079     -0.68850762106894
  H           3.51313779930269     -0.45445715970733      1.58784149509947
  H           4.06620916476709      0.15288330146179      0.00281343979431
  H           3.59425623551397     -1.55858511225399      0.18947130035225
  H          -1.25817661884515     -1.94241183173684      1.30992832228364
  H          -3.61254086087391     -1.94925367285633      1.34513137940750
  H          -2.80706647519505      2.19409239409524     -2.05486078213734
  H           0.45518926924256      1.22899256221044     -1.05114460608851
  O          -4.67826064629691     -2.66910473005802     -1.94838765298400
  H          -5.22550314769863     -1.92545864391151     -2.24587801240900
  H          -4.35104236294162     -2.37876518612671     -1.08667733264039
  O          -6.17502601508615      2.52104839998241     -0.90021132339284
  H          -5.25668191488381      2.68723909830996     -1.15869188047795
  H          -6.35184268140592      3.14209085552971     -0.18219588342471
  O          -4.77736316208361      1.68168712589647      1.81584029946870
  H          -3.95869326024922      1.22637394344944      2.05174260559106
  H          -4.48813980826541      2.46307390116746      1.32716441559485
  O          -6.29868032953969     -0.34443983327080     -2.49999088779172
  H          -7.23225519272859     -0.33930559503674     -2.74350841399011
  H          -5.88899473844032      0.36129511196087     -3.01527397473744
