33
Coordinates from ORCA-job pb_P1_cplx E -1183.149410692072
  Pb     -5.409097      0.112222     -0.555198
  C       3.923120     -0.553737      0.518268
  O       2.634413     -0.092468      0.122188
  C       1.578439     -0.801498      0.549656
  O       1.708542     -1.797764      1.248800
  C       0.298209     -0.266636      0.100915
  C      -0.870724     -0.928700      0.484890
  C      -2.101043     -0.459362      0.083122
  O      -3.280100     -1.078156      0.443544
  C      -2.210894      0.691629     -0.721304
  O      -3.350185      1.183210     -1.139625
  C      -1.011133      1.348494     -1.095989
  O      -1.122513      2.462879     -1.870209
  C       0.218245      0.880736     -0.695037
  H       3.995843     -0.577313      1.606867
  H       4.630234      0.153334      0.095791
  H       4.097421     -1.559182      0.131470
  H      -0.774435     -1.810729      1.100116
  H      -3.098099     -1.857594      0.990437
  H      -2.079877      2.599532     -2.016248
  H       1.111690      1.401089     -0.996956
  O      -6.706293     -2.151881     -0.479971
  H      -6.431078     -2.825852     -1.111049
  H      -7.668437     -2.093431     -0.521624
  O      -6.797347      2.103606     -1.143930
  H      -6.296629      2.917942     -1.272027
  H      -7.520084      2.295134     -0.532326
  O      -6.032192      1.066983      1.751878
  H      -6.432987      0.452852      2.378958
  H      -5.354299      1.566347      2.220477
  O      -5.772420     -0.215434     -3.034590
  H      -6.486514      0.316661     -3.409187
  H      -4.981957     -0.058231     -3.562181
33
Coordinates from ORCA-job pb_P1_cplx E -1183.152089437145
  Pb     -5.419564      0.113268     -0.551960
  C       3.938464     -0.551329      0.512613
  O       2.650034     -0.086105      0.114840
  C       1.602163     -0.794890      0.550691
  O       1.742191     -1.786213      1.250025
  C       0.315508     -0.265780      0.105341
  C      -0.846541     -0.932747      0.498350
  C      -2.080271     -0.469333      0.099444
  O      -3.252242     -1.088361      0.463369
  C      -2.208866      0.675435     -0.708915
  O      -3.351964      1.162886     -1.124175
  C      -1.014596      1.331420     -1.089569
  O      -1.138120      2.439705     -1.870936
  C       0.222643      0.877601     -0.695655
  H       4.020141     -0.563820      1.600469
  H       4.648784      0.150332      0.083599
  H       4.114447     -1.557780      0.129619
  H      -0.754036     -1.816384      1.119661
  H      -3.067796     -1.862050      1.010269
  H      -2.091756      2.560836     -2.011668
  H       1.112778      1.407248     -1.009198
  O      -6.751058     -2.193249     -0.506024
  H      -6.476379     -2.852619     -1.150167
  H      -7.709065     -2.128721     -0.563348
  O      -6.811099      2.134339     -1.150967
  H      -6.308097      2.946690     -1.274952
  H      -7.530810      2.331123     -0.541395
  O      -6.060512      1.095976      1.781309
  H      -6.459180      0.484491      2.408074
  H      -5.380257      1.585758      2.253742
  O      -5.778987     -0.209789     -3.056090
  H      -6.482093      0.333364     -3.428218
  H      -4.986042     -0.046621     -3.578250
33
Coordinates from ORCA-job pb_P1_cplx E -1183.153663879655
  Pb     -5.417189      0.111996     -0.546377
  C       3.946660     -0.533941      0.506276
  O       2.654583     -0.077047      0.106463
  C       1.616781     -0.793103      0.548339
  O       1.765917     -1.777143      1.252478
  C       0.322146     -0.271291      0.107373
  C      -0.832299     -0.943975      0.511171
  C      -2.070429     -0.486613      0.116329
  O      -3.238884     -1.101450      0.481318
  C      -2.217156      0.650666     -0.694130
  O      -3.366460      1.128539     -1.101662
  C      -1.029898      1.306963     -1.083633
  O      -1.167743      2.411662     -1.870956
  C       0.215911      0.867305     -0.698742
  H       4.037253     -0.531979      1.593035
  H       4.653976      0.167648      0.070101
  H       4.133152     -1.539568      0.127346
  H      -0.747731     -1.826733      1.136734
  H      -3.057695     -1.873230      1.030210
  H      -2.123075      2.517703     -2.004854
  H       1.098256      1.405482     -1.023904
  O      -6.791002     -2.234066     -0.533772
  H      -6.519100     -2.877244     -1.195980
  H      -7.746912     -2.158443     -0.612128
  O      -6.797027      2.166286     -1.157075
  H      -6.288348      2.975478     -1.276316
  H      -7.513163      2.374122     -0.547565
  O      -6.066898      1.129379      1.809474
  H      -6.463488      0.519776      2.439791
  H      -5.378568      1.603769      2.286886
  O      -5.770116     -0.205732     -3.073154
  H      -6.459439      0.356308     -3.443197
  H      -4.974197     -0.036838     -3.589952
33
Coordinates from ORCA-job pb_P1_cplx E -1183.154628788012
  Pb     -5.411715      0.106354     -0.537200
  C       3.950303     -0.523116      0.478536
  O       2.652006     -0.067033      0.097813
  C       1.622205     -0.779019      0.563513
  O       1.779192     -1.766696      1.259016
  C       0.320430     -0.267625      0.122879
  C      -0.826430     -0.947123      0.535664
  C      -2.069013     -0.498353      0.141804
  O      -3.236895     -1.111021      0.506962
  C      -2.227515      0.632251     -0.673105
  O      -3.384213      1.096372     -1.075350
  C      -1.047741      1.291808     -1.071101
  O      -1.196991      2.393156     -1.865698
  C       0.204260      0.864523     -0.690293
  H       4.065632     -0.502518      1.562553
  H       4.652115      0.170157      0.019759
  H       4.130127     -1.531946      0.105752
  H      -0.750212     -1.826694      1.165779
  H      -3.062003     -1.881346      1.060837
  H      -2.155119      2.486450     -1.996077
  H       1.078609      1.409012     -1.024103
  O      -6.835317     -2.299901     -0.570165
  H      -6.562958     -2.918936     -1.256021
  H      -7.787890     -2.209992     -0.679527
  O      -6.768768      2.194285     -1.169178
  H      -6.252807      3.000197     -1.283150
  H      -7.481795      2.418029     -0.560533
  O      -6.067435      1.170468      1.840565
  H      -6.458994      0.561317      2.476052
  H      -5.366850      1.623817      2.322568
  O      -5.742591     -0.208685     -3.087782
  H      -6.413168      0.377607     -3.457271
  H      -4.940642     -0.031113     -3.593572
33
Coordinates from ORCA-job pb_P1_cplx E -1183.154887537512
  Pb     -5.409527      0.101456     -0.521837
  C       3.944377     -0.481461      0.504738
  O       2.645067     -0.060190      0.090582
  C       1.622439     -0.803664      0.522782
  O       1.781310     -1.763979      1.254864
  C       0.315742     -0.289526      0.095955
  C      -0.826648     -0.966173      0.524491
  C      -2.072569     -0.516297      0.140931
  O      -3.241237     -1.123122      0.515135
  C      -2.234826      0.612640     -0.675475
  O      -3.398057      1.072527     -1.065929
  C      -1.060405      1.270239     -1.087603
  O      -1.215076      2.370754     -1.885143
  C       0.194707      0.841271     -0.717482
  H       4.030481     -0.457676      1.591455
  H       4.639701      0.231007      0.065886
  H       4.161390     -1.483652      0.133949
  H      -0.754941     -1.844364      1.155781
  H      -3.070935     -1.893233      1.071629
  H      -2.174965      2.463633     -2.007908
  H       1.065026      1.383776     -1.061958
  O      -6.886008     -2.360821     -0.593107
  H      -6.617952     -2.953802     -1.304272
  H      -7.834725     -2.252239     -0.724281
  O      -6.733042      2.221572     -1.161523
  H      -6.206804      3.021656     -1.274739
  H      -7.436515      2.463523     -0.547511
  O      -6.036404      1.208921      1.878349
  H      -6.418876      0.599351      2.520318
  H      -5.316066      1.636841      2.356163
  O      -5.733450     -0.206656     -3.088094
  H      -6.386055      0.405594     -3.450005
  H      -4.927340     -0.023224     -3.586215
33
Coordinates from ORCA-job pb_P1_cplx E -1183.155407003684
  Pb     -5.410627      0.095132     -0.516069
  C       3.940005     -0.498095      0.474097
  O       2.638510     -0.057499      0.089493
  C       1.613173     -0.780388      0.550321
  O       1.774165     -1.757582      1.259898
  C       0.306601     -0.272114      0.117106
  C      -0.835060     -0.951278      0.543177
  C      -2.080855     -0.505556      0.154833
  O      -3.249556     -1.114810      0.527867
  C      -2.240138      0.621987     -0.665006
  O      -3.405094      1.076637     -1.059482
  C      -1.067518      1.283054     -1.076485
  O      -1.220747      2.381317     -1.876754
  C       0.186417      0.855524     -0.700257
  H       4.051634     -0.467850      1.558478
  H       4.636376      0.198161      0.012016
  H       4.128146     -1.507727      0.107421
  H      -0.762083     -1.827441      1.176795
  H      -3.079923     -1.882427      1.088016
  H      -2.179841      2.474804     -2.003915
  H       1.057259      1.397927     -1.042889
  O      -6.895564     -2.403603     -0.610946
  H      -6.620140     -2.982347     -1.331249
  H      -7.841807     -2.290085     -0.756762
  O      -6.717644      2.217850     -1.170559
  H      -6.188474      3.016427     -1.283226
  H      -7.420300      2.466739     -0.557917
  O      -6.031787      1.222480      1.884587
  H      -6.409645      0.610423      2.527387
  H      -5.304160      1.641394      2.359815
  O      -5.709983     -0.215207     -3.086820
  H      -6.355083      0.405248     -3.448753
  H      -4.898437     -0.026413     -3.574292
33
Coordinates from ORCA-job pb_P1_cplx E -1183.155849536032
  Pb     -5.412026      0.086598     -0.506017
  C       3.926155     -0.500366      0.459019
  O       2.623564     -0.051639      0.088255
  C       1.597860     -0.766189      0.560751
  O       1.761638     -1.750672      1.260240
  C       0.291261     -0.262225      0.125920
  C      -0.849691     -0.942708      0.551640
  C      -2.095360     -0.499161      0.161741
  O      -3.262935     -1.109284      0.536214
  C      -2.252850      0.627315     -0.660160
  O      -3.419994      1.079485     -1.056007
  C      -1.082501      1.291549     -1.073129
  O      -1.234382      2.387395     -1.874035
  C       0.170410      0.863633     -0.693307
  H       4.047951     -0.469171      1.542409
  H       4.621789      0.189017     -0.013752
  H       4.100023     -1.513963      0.095902
  H      -0.770537     -1.817485      1.186846
  H      -3.092831     -1.873926      1.099890
  H      -2.191879      2.484759     -2.004577
  H       1.042607      1.405157     -1.035070
  O      -6.912889     -2.450359     -0.629061
  H      -6.629934     -3.010695     -1.360763
  H      -7.855362     -2.325430     -0.788229
  O      -6.682676      2.214001     -1.173622
  H      -6.144616      3.006544     -1.288298
  H      -7.380149      2.474786     -0.559905
  O      -6.001704      1.237750      1.890761
  H      -6.374398      0.622650      2.533668
  H      -5.259005      1.640652      2.356422
  O      -5.684876     -0.222646     -3.077407
  H      -6.319348      0.410728     -3.435486
  H      -4.865498     -0.031415     -3.550925
33
Coordinates from ORCA-job pb_P1_cplx E -1183.156682504506
  Pb     -5.420870      0.069741     -0.486308
  C       3.899040     -0.490189      0.447563
  O       2.594548     -0.038499      0.086288
  C       1.569812     -0.749968      0.564566
  O       1.738816     -1.739310      1.257281
  C       0.262372     -0.252084      0.130630
  C      -0.877230     -0.934351      0.557670
  C      -2.123217     -0.493469      0.168355
  O      -3.287474     -1.105552      0.547585
  C      -2.280541      0.631773     -0.655054
  O      -3.450987      1.083121     -1.051526
  C      -1.114109      1.300919     -1.072133
  O      -1.264772      2.392979     -1.871993
  C       0.138059      0.872058     -0.689852
  H       4.025486     -0.461539      1.530637
  H       4.591654      0.196678     -0.032234
  H       4.063514     -1.507091      0.088925
  H      -0.782650     -1.806945      1.194229
  H      -3.114284     -1.864742      1.117489
  H      -2.219791      2.499015     -2.006738
  H       1.012061      1.412101     -1.031002
  O      -6.954136     -2.522582     -0.659626
  H      -6.657405     -3.050269     -1.409355
  H      -7.888707     -2.371261     -0.838279
  O      -6.606999      2.208524     -1.174316
  H      -6.045722      2.984256     -1.294590
  H      -7.291342      2.494084     -0.556985
  O      -5.930269      1.259732      1.895092
  H      -6.297959      0.639460      2.535731
  H      -5.155952      1.627457      2.337577
  O      -5.648256     -0.235852     -3.055166
  H      -6.261772      0.423034     -3.403232
  H      -4.813100     -0.046545     -3.501302
33
Coordinates from ORCA-job pb_P1_cplx E -1183.157334500485
  Pb     -5.433109      0.056521     -0.474083
  C       3.882954     -0.469678      0.451671
  O       2.576576     -0.026387      0.085169
  C       1.554888     -0.744862      0.558518
  O       1.728026     -1.730217      1.256283
  C       0.245412     -0.251305      0.127131
  C      -0.892001     -0.935780      0.557364
  C      -2.139483     -0.497848      0.170669
  O      -3.300466     -1.112665      0.554125
  C      -2.301602      0.626359     -0.652526
  O      -3.474025      1.078400     -1.046908
  C      -1.138084      1.298265     -1.074090
  O      -1.291184      2.387850     -1.873563
  C       0.115729      0.871748     -0.693972
  H       4.004316     -0.442168      1.535356
  H       4.572028      0.222273     -0.025599
  H       4.054868     -1.486075      0.095104
  H      -0.786225     -1.806776      1.194346
  H      -3.123724     -1.868063      1.128075
  H      -2.245611      2.496910     -2.008637
  H       0.988810      1.412414     -1.036900
  O      -6.994419     -2.556678     -0.679794
  H      -6.689908     -3.063821     -1.440007
  H      -7.922683     -2.382339     -0.868274
  O      -6.548276      2.211653     -1.171346
  H      -5.964768      2.970238     -1.295366
  H      -7.220501      2.516106     -0.549980
  O      -5.872289      1.268740      1.893040
  H      -6.241676      0.646125      2.530283
  H      -5.074403      1.606555      2.316738
  O      -5.636897     -0.244009     -3.042361
  H      -6.233853      0.434690     -3.380770
  H      -4.790603     -0.061493     -3.469771
33
Coordinates from ORCA-job pb_P1_cplx E -1183.158208375006
  Pb     -5.458951      0.033091     -0.457546
  C       3.863101     -0.430575      0.458941
  O       2.553086     -0.005501      0.081453
  C       1.539295     -0.739460      0.546279
  O       1.719216     -1.713945      1.256917
  C       0.224581     -0.251829      0.121841
  C      -0.907155     -0.941225      0.560339
  C      -2.158797     -0.510367      0.179463
  O      -3.314230     -1.131621      0.568390
  C      -2.334142      0.611142     -0.642718
  O      -3.509752      1.060543     -1.031900
  C      -1.175914      1.287321     -1.072164
  O      -1.338292      2.374294     -1.872140
  C       0.083407      0.869506     -0.699998
  H       3.976900     -0.402089      1.543310
  H       4.545439      0.272161     -0.012422
  H       4.054229     -1.443617      0.102950
  H      -0.788633     -1.810217      1.197478
  H      -3.131099     -1.880747      1.148707
  H      -2.293776      2.480680     -2.003152
  H       0.951392      1.414199     -1.049000
  O      -7.070323     -2.595237     -0.712142
  H      -6.754824     -3.071991     -1.487067
  H      -7.986445     -2.380897     -0.916881
  O      -6.453825      2.223886     -1.169407
  H      -5.830547      2.949402     -1.297097
  H      -7.104957      2.559066     -0.542046
  O      -5.783796      1.279052      1.885181
  H      -6.160696      0.655078      2.516491
  H      -4.950672      1.562435      2.279536
  O      -5.631029     -0.259257     -3.030638
  H      -6.197522      0.452530     -3.353046
  H      -4.767450     -0.091123     -3.427987
33
Coordinates from ORCA-job pb_P1_cplx E -1183.159115329591
  Pb     -5.496503      0.001327     -0.429353
  C       3.836340     -0.392829      0.437011
  O       2.519860      0.021426      0.068964
  C       1.516802     -0.721526      0.541562
  O       1.707848     -1.689403      1.257334
  C       0.193928     -0.240225      0.130825
  C      -0.928571     -0.936859      0.581930
  C      -2.186389     -0.516718      0.208885
  O      -3.335397     -1.146870      0.601667
  C      -2.378743      0.599715     -0.612948
  O      -3.560120      1.036328     -0.996105
  C      -1.229675      1.283744     -1.052584
  O      -1.407476      2.367765     -1.854518
  C       0.037266      0.878594     -0.691757
  H       3.960147     -0.360883      1.520071
  H       4.509462      0.315200     -0.040100
  H       4.034895     -1.403542      0.078789
  H      -0.799277     -1.804263      1.218759
  H      -3.145179     -1.887025      1.191146
  H      -2.365046      2.465285     -1.978069
  H       0.896946      1.429471     -1.050766
  O      -7.182105     -2.663709     -0.768168
  H      -6.842781     -3.091249     -1.562265
  H      -8.073936     -2.392442     -1.009965
  O      -6.317026      2.234237     -1.180976
  H      -5.640381      2.909878     -1.308730
  H      -6.940121      2.614878     -0.552576
  O      -5.680500      1.303305      1.877043
  H      -6.067922      0.677655      2.500512
  H      -4.807197      1.500069      2.236502
  O      -5.598861     -0.291767     -3.013989
  H      -6.112965      0.466161     -3.319443
  H      -4.709505     -0.141046     -3.358766
33
Coordinates from ORCA-job pb_P1_cplx E -1183.159720733931
  Pb     -5.538067     -0.027301     -0.408855
  C       3.818137     -0.358274      0.432550
  O       2.497600      0.046258      0.068755
  C       1.502029     -0.706860      0.541807
  O       1.700669     -1.673342      1.256612
  C       0.173997     -0.231505      0.136890
  C      -0.941662     -0.937504      0.590317
  C      -2.204260     -0.524973      0.223556
  O      -3.348999     -1.163543      0.618238
  C      -2.408898      0.590275     -0.596673
  O      -3.593013      1.017667     -0.972192
  C      -1.264872      1.282315     -1.037026
  O      -1.455974      2.369428     -1.835844
  C       0.007220      0.888540     -0.682711
  H       3.945301     -0.329209      1.515200
  H       4.485065      0.358440     -0.040871
  H       4.027270     -1.363515      0.065321
  H      -0.809616     -1.805866      1.224875
  H      -3.150869     -1.898411      1.211908
  H      -2.416216      2.453982     -1.953071
  H       0.859795      1.448343     -1.043694
  O      -7.280018     -2.697944     -0.802003
  H      -6.922307     -3.090143     -1.605943
  H      -8.150558     -2.379931     -1.064577
  O      -6.218088      2.238568     -1.190510
  H      -5.496542      2.865583     -1.321226
  H      -6.814435      2.655117     -0.557142
  O      -5.579149      1.312244      1.854914
  H      -5.975613      0.688797      2.476151
  H      -4.676451      1.434097      2.173631
  O      -5.599349     -0.320258     -3.005362
  H      -6.071556      0.470752     -3.294923
  H      -4.692755     -0.187142     -3.308179
33
Coordinates from ORCA-job pb_P1_cplx E -1183.159998624973
  Pb     -5.573968     -0.055971     -0.389548
  C       3.792864     -0.313442      0.435883
  O       2.467822      0.079583      0.078175
  C       1.480710     -0.685760      0.551017
  O       1.691161     -1.657809      1.254385
  C       0.147383     -0.223897      0.146497
  C      -0.959783     -0.945319      0.595797
  C      -2.227193     -0.542887      0.233453
  O      -3.368242     -1.189480      0.625407
  C      -2.444672      0.573321     -0.582912
  O      -3.632564      0.987171     -0.949319
  C      -1.307648      1.279061     -1.018795
  O      -1.515792      2.372092     -1.810394
  C      -0.030977      0.898931     -0.667690
  H       3.922678     -0.289993      1.518341
  H       4.452411      0.414059     -0.031938
  H       4.013212     -1.311982      0.057075
  H      -0.827283     -1.816331      1.226960
  H      -3.165519     -1.922464      1.219482
  H      -2.478504      2.438976     -1.920720
  H       0.813713      1.472744     -1.025331
  O      -7.383682     -2.725105     -0.832270
  H      -7.010016     -3.079630     -1.646574
  H      -8.229325     -2.357089     -1.110206
  O      -6.113422      2.241112     -1.201103
  H      -5.347523      2.812006     -1.339655
  H      -6.672573      2.696091     -0.559297
  O      -5.428472      1.321062      1.821185
  H      -5.826475      0.706347      2.450391
  H      -4.498853      1.357800      2.079880
  O      -5.608240     -0.348483     -3.001118
  H      -6.036652      0.473825     -3.272302
  H      -4.686757     -0.233854     -3.264829
33
Coordinates from ORCA-job pb_P1_cplx E -1183.160268722934
  Pb     -5.571304     -0.059424     -0.397488
  C       3.796824     -0.316399      0.453593
  O       2.473887      0.077388      0.090818
  C       1.483396     -0.685475      0.562205
  O       1.691752     -1.660432      1.262630
  C       0.152757     -0.225950      0.148950
  C      -0.956209     -0.948307      0.591504
  C      -2.222271     -0.547072      0.223424
  O      -3.364331     -1.196403      0.610806
  C      -2.435238      0.571827     -0.595093
  O      -3.621730      0.986620     -0.963761
  C      -1.295477      1.277720     -1.024477
  O      -1.501149      2.371505     -1.817547
  C      -0.021308      0.896764     -0.666384
  H       3.921726     -0.292488      1.536671
  H       4.459290      0.409950     -0.011788
  H       4.017120     -1.315491      0.076006
  H      -0.830303     -1.819790      1.223369
  H      -3.162450     -1.933656      1.200008
  H      -2.463948      2.435462     -1.930921
  H       0.824975      1.471119     -1.019151
  O      -7.360980     -2.716033     -0.822198
  H      -6.996446     -3.073897     -1.637887
  H      -8.214928     -2.356174     -1.084525
  O      -6.157356      2.240853     -1.193613
  H      -5.396921      2.818464     -1.340114
  H      -6.714496      2.688803     -0.542786
  O      -5.407814      1.318117      1.812487
  H      -5.792142      0.708959      2.455124
  H      -4.474024      1.370180      2.053620
  O      -5.641619     -0.336259     -3.012227
  H      -6.085637      0.478001     -3.281229
  H      -4.725828     -0.213797     -3.290102
33
Coordinates from ORCA-job pb_P1_cplx E -1183.160629229448
  Pb     -5.564281     -0.069444     -0.406643
  C       3.790635     -0.314907      0.484235
  O       2.470726      0.079897      0.114389
  C       1.475514     -0.678318      0.585396
  O       1.682913     -1.657867      1.280622
  C       0.148803     -0.226159      0.157644
  C      -0.961950     -0.951517      0.589319
  C      -2.225499     -0.555404      0.208963
  O      -3.367867     -1.210003      0.584392
  C      -2.432204      0.565651     -0.612515
  O      -3.618506      0.975544     -0.987931
  C      -1.290968      1.274622     -1.032416
  O      -1.493925      2.366980     -1.829412
  C      -0.020670      0.894582     -0.660811
  H       3.908331     -0.288919      1.568202
  H       4.457153      0.408317      0.020140
  H       4.009117     -1.316409      0.111564
  H      -0.845468     -1.823225      1.223139
  H      -3.169098     -1.956109      1.163238
  H      -2.456050      2.426144     -1.948660
  H       0.827865      1.470630     -1.006123
  O      -7.332374     -2.719033     -0.817519
  H      -6.980560     -3.065528     -1.643623
  H      -8.193929     -2.362561     -1.057777
  O      -6.213411      2.235871     -1.176819
  H      -5.457610      2.815096     -1.339301
  H      -6.752847      2.679627     -0.509713
  O      -5.317859      1.322953      1.792053
  H      -5.666407      0.725925      2.465360
  H      -4.372640      1.381554      1.981146
  O      -5.691503     -0.315754     -3.025107
  H      -6.154802      0.490174     -3.285361
  H      -4.782808     -0.177726     -3.320146
33
Coordinates from ORCA-job pb_P1_cplx E -1183.160962491590
  Pb     -5.567142     -0.083676     -0.414578
  C       3.779922     -0.309697      0.506748
  O       2.460618      0.084171      0.134345
  C       1.464270     -0.674119      0.603889
  O       1.672301     -1.653350      1.299984
  C       0.139072     -0.225211      0.172107
  C      -0.972630     -0.953933      0.595941
  C      -2.234502     -0.563951      0.204749
  O      -3.375671     -1.226020      0.566704
  C      -2.438804      0.558015     -0.616644
  O      -3.623767      0.959578     -1.005523
  C      -1.297828      1.272823     -1.026519
  O      -1.499864      2.364139     -1.824855
  C      -0.029586      0.895802     -0.645656
  H       3.894246     -0.286576      1.591148
  H       4.446559      0.415050      0.045402
  H       3.999877     -1.310870      0.133880
  H      -0.860293     -1.826921      1.228935
  H      -3.178633     -1.980604      1.135127
  H      -2.461568      2.419910     -1.949138
  H       0.819701      1.474422     -0.985199
  O      -7.312149     -2.719080     -0.818951
  H      -6.966914     -3.047823     -1.655170
  H      -8.176782     -2.358237     -1.041094
  O      -6.257617      2.224838     -1.164594
  H      -5.498470      2.794321     -1.342989
  H      -6.773905      2.671956     -0.482373
  O      -5.203525      1.328264      1.750381
  H      -5.512332      0.748393      2.457240
  H      -4.246791      1.380868      1.870288
  O      -5.735314     -0.299428     -3.033128
  H      -6.213564      0.500442     -3.285083
  H      -4.831096     -0.148814     -3.335451
33
Coordinates from ORCA-job pb_P1_cplx E -1183.161383950195
  Pb     -5.573415     -0.099616     -0.416532
  C       3.760169     -0.288653      0.543716
  O       2.440392      0.095661      0.162054
  C       1.445962     -0.669248      0.624424
  O       1.655584     -1.643723      1.327135
  C       0.121016     -0.229106      0.185090
  C      -0.990028     -0.966155      0.597431
  C      -2.250593     -0.584358      0.194371
  O      -3.389575     -1.253813      0.544047
  C      -2.453975      0.536502     -0.626250
  O      -3.638167      0.929106     -1.031733
  C      -1.316106      1.261580     -1.025260
  O      -1.516278      2.349857     -1.824534
  C      -0.049340      0.891702     -0.632023
  H       3.866535     -0.266225      1.628954
  H       4.423617      0.440933      0.085799
  H       3.989020     -1.289368      0.174914
  H      -0.875596     -1.839008      1.230173
  H      -3.194593     -2.019488      1.098271
  H      -2.476403      2.403352     -1.960698
  H       0.799976      1.475210     -0.963141
  O      -7.303334     -2.724339     -0.827445
  H      -6.966084     -3.017712     -1.680815
  H      -8.166402     -2.348947     -1.031642
  O      -6.303621      2.208480     -1.140162
  H      -5.536891      2.760319     -1.338911
  H      -6.783087      2.667690     -0.440168
  O      -5.031504      1.342482      1.694282
  H      -5.275714      0.787980      2.445269
  H      -4.066254      1.373785      1.712660
  O      -5.781909     -0.274168     -3.030337
  H      -6.272977      0.521891     -3.270289
  H      -4.882606     -0.107922     -3.338722
33
Coordinates from ORCA-job pb_P1_cplx E -1183.161574500459
  Pb     -5.571998     -0.097163     -0.415511
  C       3.754719     -0.282465      0.559809
  O       2.434868      0.094442      0.168434
  C       1.442472     -0.675571      0.623945
  O       1.649972     -1.643030      1.336539
  C       0.116934     -0.237922      0.181038
  C      -0.994143     -0.976484      0.591636
  C      -2.254343     -0.596641      0.184834
  O      -3.392610     -1.265954      0.536375
  C      -2.457517      0.520700     -0.637585
  O      -3.640840      0.913444     -1.053292
  C      -1.320854      1.248941     -1.034391
  O      -1.516575      2.334927     -1.833016
  C      -0.053975      0.882157     -0.636805
  H       3.855082     -0.256298      1.645509
  H       4.416258      0.448883      0.102124
  H       3.990458     -1.283995      0.197826
  H      -0.872125     -1.846857      1.226133
  H      -3.198094     -2.036248      1.084251
  H      -2.474922      2.393528     -1.977627
  H       0.796021      1.466396     -0.964816
  O      -7.282074     -2.722381     -0.833302
  H      -6.946743     -3.001352     -1.692938
  H      -8.146203     -2.346605     -1.033822
  O      -6.341236      2.197355     -1.127070
  H      -5.577635      2.751237     -1.327770
  H      -6.813066      2.658792     -0.425026
  O      -4.994749      1.362946      1.693112
  H      -5.209699      0.821828      2.462451
  H      -4.030015      1.398521      1.682723
  O      -5.784694     -0.255163     -3.019072
  H      -6.285864      0.533428     -3.260948
  H      -4.888990     -0.078711     -3.333822
33
Coordinates from ORCA-job pb_P1_cplx E -1183.161718276627
  Pb     -5.582482     -0.097061     -0.408585
  C       3.751500     -0.273829      0.572803
  O       2.432128      0.095468      0.171104
  C       1.441735     -0.677887      0.623084
  O       1.647002     -1.639387      1.343505
  C       0.115407     -0.243153      0.174706
  C      -0.994266     -0.983360      0.585740
  C      -2.255372     -0.606773      0.177614
  O      -3.392186     -1.277735      0.534454
  C      -2.461697      0.506785     -0.648375
  O      -3.644074      0.899989     -1.067406
  C      -1.324847      1.236121     -1.044982
  O      -1.519967      2.319334     -1.846337
  C      -0.056470      0.874997     -0.646122
  H       3.846707     -0.239652      1.658687
  H       4.412619      0.457598      0.114389
  H       3.994485     -1.275980      0.217654
  H      -0.865892     -1.850861      1.222708
  H      -3.192871     -2.048831      1.079281
  H      -2.477523      2.376057     -1.996190
  H       0.792407      1.460937     -0.973709
  O      -7.279441     -2.712435     -0.842137
  H      -6.939855     -2.979246     -1.703422
  H      -8.141396     -2.330953     -1.041137
  O      -6.359550      2.189722     -1.117384
  H      -5.591244      2.738619     -1.317069
  H      -6.827303      2.655766     -0.414294
  O      -4.975855      1.369828      1.694241
  H      -5.176732      0.837139      2.473198
  H      -4.011559      1.402182      1.664343
  O      -5.782357     -0.241521     -3.004781
  H      -6.286344      0.545030     -3.248312
  H      -4.886891     -0.062223     -3.317345
33
Coordinates from ORCA-job pb_P1_cplx E -1183.161879224799
  Pb     -5.597538     -0.095294     -0.391221
  C       3.746560     -0.269032      0.572776
  O       2.427045      0.094350      0.165344
  C       1.438377     -0.676523      0.623342
  O       1.642342     -1.631823      1.351371
  C       0.110634     -0.246434      0.168384
  C      -0.996267     -0.986350      0.585632
  C      -2.259132     -0.615728      0.176514
  O      -3.393591     -1.288291      0.543304
  C      -2.470749      0.490808     -0.657809
  O      -3.652986      0.880402     -1.079086
  C      -1.333739      1.218842     -1.059414
  O      -1.530717      2.296686     -1.868402
  C      -0.062822      0.865656     -0.660930
  H       3.842252     -0.217781      1.657889
  H       4.408263      0.456218      0.105062
  H       3.991167     -1.274856      0.229669
  H      -0.860452     -1.848294      1.228499
  H      -3.185382     -2.057378      1.087444
  H      -2.487935      2.348746     -2.021078
  H       0.783808      1.452265     -0.992820
  O      -7.273746     -2.705323     -0.867885
  H      -6.918725     -2.951245     -1.728597
  H      -8.129731     -2.314179     -1.073329
  O      -6.375132      2.179353     -1.109794
  H      -5.598417      2.721222     -1.300842
  H      -6.844476      2.652838     -0.410957
  O      -4.976125      1.383432      1.712682
  H      -5.167195      0.859653      2.499975
  H      -4.012023      1.411641      1.671041
  O      -5.750575     -0.225862     -2.978951
  H      -6.253430      0.559477     -3.228903
  H      -4.851746     -0.042508     -3.278983
33
Coordinates from ORCA-job pb_P1_cplx E -1183.161971774857
  Pb     -5.614241     -0.100928     -0.376489
  C       3.739198     -0.258579      0.574168
  O       2.419093      0.099649      0.164993
  C       1.432000     -0.671132      0.627395
  O       1.638364     -1.624126      1.357584
  C       0.103368     -0.246690      0.168718
  C      -1.000881     -0.988500      0.588732
  C      -2.265190     -0.624175      0.178419
  O      -3.397362     -1.300147      0.548403
  C      -2.481381      0.478958     -0.660238
  O      -3.663660      0.861239     -1.081600
  C      -1.345341      1.207914     -1.063659
  O      -1.548542      2.284111     -1.876755
  C      -0.072789      0.861675     -0.665303
  H       3.835032     -0.199481      1.658849
  H       4.400261      0.465268      0.103086
  H       3.986561     -1.264962      0.234822
  H      -0.864178     -1.847889      1.234835
  H      -3.181618     -2.067022      1.092831
  H      -2.506955      2.328459     -2.026192
  H       0.770788      1.450955     -0.999848
  O      -7.281995     -2.695546     -0.886634
  H      -6.914338     -2.922753     -1.746852
  H      -8.130727     -2.289918     -1.093530
  O      -6.372996      2.174851     -1.105142
  H      -5.583186      2.699789     -1.293672
  H      -6.836029      2.657851     -0.407626
  O      -4.944493      1.383266      1.706277
  H      -5.126419      0.867170      2.500906
  H      -3.981197      1.397219      1.641178
  O      -5.736304     -0.221118     -2.963757
  H      -6.234258      0.567471     -3.214775
  H      -4.832767     -0.038194     -3.249198
33
Coordinates from ORCA-job pb_P1_cplx E -1183.162032112085
  Pb     -5.621042     -0.099228     -0.364486
  C       3.739361     -0.259892      0.557722
  O       2.418085      0.098793      0.154167
  C       1.431569     -0.670126      0.622817
  O       1.641596     -1.623327      1.351979
  C       0.102155     -0.247097      0.167272
  C      -1.000949     -0.987247      0.593103
  C      -2.266439     -0.624989      0.185139
  O      -3.397762     -1.300085      0.559625
  C      -2.485037      0.476419     -0.656057
  O      -3.668089      0.853504     -1.073913
  C      -1.349895      1.203433     -1.064312
  O      -1.559403      2.279038     -1.880283
  C      -0.076292      0.858794     -0.669441
  H       3.839409     -0.198893      1.641925
  H       4.399704      0.462781      0.083700
  H       3.984590     -1.266402      0.217214
  H      -0.866423     -1.845333      1.241496
  H      -3.177013     -2.061420      1.110047
  H      -2.519682      2.319645     -2.020651
  H       0.765216      1.447791     -1.009454
  O      -7.276200     -2.686228     -0.899175
  H      -6.894479     -2.908661     -1.754819
  H      -8.120257     -2.275064     -1.114313
  O      -6.360777      2.178681     -1.113967
  H      -5.564272      2.695537     -1.292606
  H      -6.830786      2.663415     -0.423994
  O      -4.979228      1.385017      1.724127
  H      -5.177468      0.868137      2.514454
  H      -4.015355      1.400449      1.676617
  O      -5.708611     -0.227569     -2.955017
  H      -6.199378      0.562660     -3.213159
  H      -4.799030     -0.047850     -3.225833
33
Coordinates from ORCA-job pb_P1_cplx E -1183.162127985347
  Pb     -5.625990     -0.101772     -0.351583
  C       3.733763     -0.250488      0.555286
  O       2.411518      0.105006      0.153514
  C       1.426310     -0.666923      0.622227
  O       1.641576     -1.621562      1.348707
  C       0.096692     -0.249085      0.167553
  C      -1.005299     -0.991220      0.593737
  C      -2.271410     -0.631904      0.185852
  O      -3.401957     -1.307464      0.559887
  C      -2.490608      0.469556     -0.655646
  O      -3.675377      0.841047     -1.070898
  C      -1.358187      1.198708     -1.065192
  O      -1.573318      2.273638     -1.882314
  C      -0.084742      0.855822     -0.669537
  H       3.832886     -0.193310      1.639839
  H       4.391680      0.475780      0.083573
  H       3.981517     -1.255488      0.211945
  H      -0.874032     -1.849131      1.243168
  H      -3.179442     -2.065281      1.114684
  H      -2.534907      2.311091     -2.015966
  H       0.755199      1.446347     -1.010874
  O      -7.278314     -2.679902     -0.908454
  H      -6.888606     -2.889213     -1.764262
  H      -8.115970     -2.257320     -1.126441
  O      -6.346085      2.182958     -1.115950
  H      -5.540692      2.685973     -1.292863
  H      -6.811476      2.673511     -0.427630
  O      -4.965128      1.385489      1.723743
  H      -5.164966      0.870156      2.514510
  H      -4.001136      1.393410      1.673051
  O      -5.701849     -0.235503     -2.948753
  H      -6.185588      0.558984     -3.207891
  H      -4.788242     -0.057228     -3.207097
33
Coordinates from ORCA-job pb_P1_cplx E -1183.162221670326
  Pb     -5.630579     -0.103353     -0.331678
  C       3.725548     -0.236830      0.556889
  O       2.402297      0.112687      0.153912
  C       1.419343     -0.665287      0.619289
  O       1.640646     -1.620059      1.344695
  C       0.089523     -0.254469      0.165393
  C      -1.011423     -0.999558      0.590899
  C      -2.278055     -0.644181      0.181899
  O      -3.407367     -1.321117      0.554012
  C      -2.497447      0.457055     -0.659685
  O      -3.684677      0.822547     -1.074168
  C      -1.368916      1.190058     -1.070466
  O      -1.588789      2.262570     -1.888906
  C      -0.096016      0.849295     -0.672023
  H       3.820823     -0.186727      1.642202
  H       4.379472      0.496016      0.090186
  H       3.979309     -1.239470      0.210736
  H      -0.882103     -1.857107      1.241416
  H      -3.183947     -2.073371      1.116164
  H      -2.551291      2.298753     -2.016705
  H       0.742803      1.441498     -1.013666
  O      -7.267928     -2.665008     -0.920295
  H      -6.867725     -2.852256     -1.776797
  H      -8.097170     -2.226563     -1.139654
  O      -6.333560      2.186629     -1.116356
  H      -5.516893      2.671191     -1.290935
  H      -6.791658      2.684482     -0.429304
  O      -4.947843      1.388877      1.724818
  H      -5.147676      0.876728      2.517616
  H      -3.983915      1.393047      1.671152
  O      -5.699401     -0.246131     -2.935944
  H      -6.176418      0.551716     -3.197562
  H      -4.781146     -0.066976     -3.177209
33
Coordinates from ORCA-job pb_P1_cplx E -1183.162367079012
  Pb     -5.637785     -0.105247     -0.297717
  C       3.711281     -0.212856      0.568359
  O       2.387184      0.125091      0.158315
  C       1.408433     -0.663875      0.615158
  O       1.636451     -1.617609      1.340711
  C       0.078089     -0.264365      0.158777
  C      -1.020606     -1.015673      0.581159
  C      -2.287932     -0.667106      0.168839
  O      -3.415110     -1.348119      0.536894
  C      -2.508461      0.433327     -0.672891
  O      -3.699171      0.791385     -1.088348
  C      -1.385633      1.173656     -1.083827
  O      -1.609934      2.242411     -1.902960
  C      -0.113292      0.837732     -0.679426
  H       3.797868     -0.172391      1.654869
  H       4.359107      0.530665      0.110620
  H       3.977554     -1.211576      0.219901
  H      -0.890895     -1.872392      1.232903
  H      -3.191515     -2.090607      1.111964
  H      -2.572907      2.277787     -2.027646
  H       0.724185      1.433603     -1.018606
  O      -7.245402     -2.636716     -0.939717
  H      -6.829620     -2.782950     -1.797107
  H      -8.060639     -2.171131     -1.156494
  O      -6.319336      2.189446     -1.113300
  H      -5.484952      2.644065     -1.285132
  H      -6.762131      2.700022     -0.425855
  O      -4.913127      1.395550      1.725009
  H      -5.107994      0.889472      2.522802
  H      -3.949563      1.396405      1.663689
  O      -5.707266     -0.262958     -2.910909
  H      -6.176020      0.538781     -3.175544
  H      -4.783041     -0.079142     -3.124565
33
Coordinates from ORCA-job pb_P1_cplx E -1183.162538607679
  Pb     -5.641113     -0.105707     -0.268530
  C       3.699560     -0.193853      0.584062
  O       2.375599      0.134674      0.165073
  C       1.400404     -0.663459      0.612485
  O       1.630408     -1.616378      1.338516
  C       0.069458     -0.271791      0.151038
  C      -1.026850     -1.029871      0.567992
  C      -2.294307     -0.686653      0.151270
  O      -3.419980     -1.373247      0.512842
  C      -2.516403      0.413696     -0.689047
  O      -3.709404      0.767780     -1.106975
  C      -1.397499      1.161536     -1.096882
  O      -1.622065      2.228727     -1.913933
  C      -0.125355      0.830210     -0.686644
  H       3.777800     -0.160178      1.671453
  H       4.343328      0.557927      0.134428
  H       3.977153     -1.189194      0.234574
  H      -0.894081     -1.886650      1.219021
  H      -3.199192     -2.104894      1.102662
  H      -2.584363      2.264516     -2.042789
  H       0.711614      1.430177     -1.020147
  O      -7.221113     -2.612341     -0.955491
  H      -6.794187     -2.720529     -1.813222
  H      -8.025040     -2.123294     -1.163977
  O      -6.306093      2.190954     -1.110583
  H      -5.458124      2.620780     -1.281255
  H      -6.732161      2.712144     -0.420087
  O      -4.884504      1.401557      1.725512
  H      -5.076510      0.898580      2.526025
  H      -3.920927      1.403969      1.663132
  O      -5.730978     -0.283102     -2.888355
  H      -6.194677      0.521198     -3.154108
  H      -4.802579     -0.092600     -3.078135
33
Coordinates from ORCA-job pb_P1_cplx E -1183.162721896022
  Pb     -5.642684     -0.104566     -0.244056
  C       3.690539     -0.184042      0.596465
  O       2.366988      0.140010      0.171327
  C       1.394104     -0.662449      0.612742
  O       1.621348     -1.615519      1.338504
  C       0.062097     -0.273640      0.144883
  C      -1.031305     -1.038510      0.555486
  C      -2.298454     -0.699231      0.133741
  O      -3.423243     -1.392935      0.487288
  C      -2.523254      0.401407     -0.704197
  O      -3.716969      0.753505     -1.126401
  C      -1.406088      1.156502     -1.105311
  O      -1.627666      2.225381     -1.917673
  C      -0.133296      0.829887     -0.690869
  H       3.764715     -0.150825      1.684109
  H       4.333427      0.570545      0.150199
  H       3.973959     -1.177825      0.247322
  H      -0.892396     -1.896019      1.203923
  H      -3.208036     -2.111825      1.094445
  H      -2.588124      2.261564     -2.057836
  H       0.703431      1.434285     -1.016639
  O      -7.201267     -2.602538     -0.975392
  H      -6.764184     -2.674063     -1.831869
  H      -7.995652     -2.093166     -1.172493
  O      -6.289452      2.189544     -1.111396
  H      -5.431255      2.600282     -1.280755
  H      -6.698127      2.720802     -0.416845
  O      -4.863335      1.410861      1.729587
  H      -5.056055      0.908258      2.530368
  H      -3.899187      1.416370      1.673357
  O      -5.761088     -0.307577     -2.866627
  H      -6.221858      0.498637     -3.131949
  H      -4.829814     -0.108423     -3.033512
33
Coordinates from ORCA-job pb_P1_cplx E -1183.162911818095
  Pb     -5.648894     -0.104241     -0.218192
  C       3.678754     -0.174571      0.604852
  O       2.355176      0.144974      0.175623
  C       1.384492     -0.658411      0.616989
  O       1.609026     -1.609935      1.344305
  C       0.051071     -0.273141      0.141179
  C      -1.037935     -1.045824      0.546382
  C      -2.305086     -0.712876      0.119080
  O      -3.428186     -1.415495      0.465759
  C      -2.535593      0.386959     -0.718068
  O      -3.728931      0.733681     -1.145073
  C      -1.419459      1.148872     -1.111175
  O      -1.641091      2.220478     -1.920551
  C      -0.144901      0.830811     -0.693992
  H       3.751969     -0.132106      1.692151
  H       4.322327      0.578025      0.155758
  H       3.965141     -1.168711      0.259551
  H      -0.891520     -1.902989      1.193253
  H      -3.216386     -2.120019      1.090543
  H      -2.599717      2.251548     -2.072449
  H       0.689603      1.441140     -1.013698
  O      -7.186480     -2.595764     -1.009006
  H      -6.734137     -2.624253     -1.859835
  H      -7.969736     -2.064116     -1.190559
  O      -6.270227      2.183695     -1.111775
  H      -5.399477      2.571794     -1.276990
  H      -6.659690      2.728074     -0.414992
  O      -4.830890      1.422173      1.732706
  H      -5.020732      0.924381      2.537318
  H      -3.866901      1.426329      1.673452
  O      -5.779453     -0.327156     -2.839317
  H      -6.238855      0.479904     -3.104355
  H      -4.845461     -0.118548     -2.978949
33
Coordinates from ORCA-job pb_P1_cplx E -1183.163023698914
  Pb     -5.654272     -0.104408     -0.197712
  C       3.667553     -0.162763      0.617652
  O       2.344438      0.150437      0.182389
  C       1.375155     -0.654136      0.623353
  O       1.598436     -1.603244      1.353491
  C       0.041618     -0.274421      0.138405
  C      -1.043912     -1.054801      0.536795
  C      -2.310521     -0.728095      0.103385
  O      -3.431963     -1.438601      0.443190
  C      -2.545175      0.371806     -0.732687
  O      -3.737960      0.712655     -1.163153
  C      -1.429884      1.139496     -1.117149
  O      -1.653111      2.214451     -1.924384
  C      -0.154492      0.829703     -0.696157
  H       3.737405     -0.109185      1.704618
  H       4.311942      0.587595      0.165613
  H       3.957635     -1.157648      0.278032
  H      -0.892942     -1.911521      1.182908
  H      -3.222987     -2.129911      1.083508
  H      -2.610353      2.238460     -2.085333
  H       0.677299      1.446178     -1.010320
  O      -7.177595     -2.592600     -1.040549
  H      -6.714882     -2.579931     -1.886246
  H      -7.953393     -2.043267     -1.199787
  O      -6.257473      2.178588     -1.107859
  H      -5.377384      2.546322     -1.272207
  H      -6.626791      2.733626     -0.408388
  O      -4.787323      1.431892      1.728976
  H      -4.967919      0.941676      2.540424
  H      -3.824282      1.434706      1.657334
  O      -5.800292     -0.337720     -2.815510
  H      -6.263713      0.467907     -3.078279
  H      -4.865041     -0.118563     -2.934428
33
Coordinates from ORCA-job pb_P1_cplx E -1183.163178485492
  Pb     -5.656365     -0.105622     -0.171526
  C       3.650054     -0.139685      0.645571
  O       2.328739      0.161157      0.196776
  C       1.361368     -0.648437      0.632649
  O       1.585108     -1.594250      1.366707
  C       0.029264     -0.280253      0.133351
  C      -1.052276     -1.071308      0.520985
  C      -2.317725     -0.753709      0.078399
  O      -3.436606     -1.473878      0.408572
  C      -2.556042      0.347107     -0.756224
  O      -3.749295      0.679734     -1.189308
  C      -1.443071      1.123076     -1.129297
  O      -1.669614      2.201823     -1.934056
  C      -0.167867      0.823813     -0.700508
  H       3.709456     -0.073924      1.732472
  H       4.294504      0.610663      0.193356
  H       3.949308     -1.134725      0.314831
  H      -0.898239     -1.927370      1.167092
  H      -3.230804     -2.147875      1.068171
  H      -2.625468      2.216199     -2.103641
  H       0.660056      1.449119     -1.006749
  O      -7.170129     -2.590109     -1.078852
  H      -6.700832     -2.519792     -1.918376
  H      -7.937954     -2.020639     -1.200200
  O      -6.245938      2.174595     -1.094680
  H      -5.355669      2.515872     -1.264670
  H      -6.585159      2.742177     -0.389646
  O      -4.707241      1.442502      1.712841
  H      -4.864155      0.965077      2.536579
  H      -3.746934      1.443371      1.612072
  O      -5.834397     -0.342582     -2.785988
  H      -6.308270      0.459349     -3.041564
  H      -4.899989     -0.106792     -2.885214
33
Coordinates from ORCA-job pb_P1_cplx E -1183.163239421372
  Pb     -5.658152     -0.108020     -0.131323
  C       3.623169     -0.100399      0.684665
  O       2.303983      0.181184      0.218275
  C       1.341369     -0.640510      0.643490
  O       1.570031     -1.583504      1.379924
  C       0.011371     -0.290076      0.128181
  C      -1.064278     -1.096849      0.500582
  C      -2.328451     -0.793305      0.045915
  O      -3.442497     -1.528436      0.361216
  C      -2.572010      0.309999     -0.785294
  O      -3.766511      0.629140     -1.220877
  C      -1.464585      1.100067     -1.141686
  O      -1.699360      2.184615     -1.941108
  C      -0.190188      0.815403     -0.702063
  H       3.666711     -0.026794      1.771811
  H       4.264301      0.656086      0.237780
  H       3.939258     -1.092319      0.360605
  H      -0.907621     -1.953497      1.145290
  H      -3.239116     -2.172124      1.051402
  H      -2.654340      2.184889     -2.116479
  H       0.630997      1.454641     -0.997142
  O      -7.169507     -2.578355     -1.133617
  H      -6.692675     -2.420428     -1.957572
  H      -7.923606     -1.981659     -1.191869
  O      -6.216690      2.172177     -1.078791
  H      -5.311429      2.467994     -1.259911
  H      -6.510891      2.756933     -0.367382
  O      -4.588148      1.448205      1.674404
  H      -4.710646      0.990049      2.514176
  H      -3.633891      1.443323      1.527605
  O      -5.880846     -0.352665     -2.745516
  H      -6.369662      0.443661     -2.989109
  H      -4.948272     -0.094742     -2.815655
33
Coordinates from ORCA-job pb_P1_cplx E -1183.163348091365
  Pb     -5.661302     -0.101878     -0.150097
  C       3.638123     -0.122446      0.658863
  O       2.316391      0.171380      0.207894
  C       1.350766     -0.643606      0.641716
  O       1.581958     -1.588613      1.375675
  C       0.020157     -0.284103      0.140912
  C      -1.060019     -1.082566      0.519969
  C      -2.324259     -0.773473      0.069737
  O      -3.439423     -1.503487      0.386437
  C      -2.563555      0.330654     -0.761647
  O      -3.757830      0.652847     -1.197215
  C      -1.454476      1.115760     -1.122428
  O      -1.687996      2.199435     -1.923956
  C      -0.180802      0.822710     -0.687449
  H       3.693440     -0.054747      1.745890
  H       4.279523      0.630828      0.207228
  H       3.942181     -1.116412      0.329318
  H      -0.908359     -1.941214      1.163513
  H      -3.243286     -2.150278      1.076091
  H      -2.644741      2.204252     -2.090026
  H       0.642280      1.456541     -0.989389
  O      -7.174665     -2.618990     -1.133133
  H      -6.701164     -2.472588     -1.960631
  H      -7.943893     -2.041658     -1.194588
  O      -6.222015      2.181955     -1.088629
  H      -5.327135      2.494866     -1.272496
  H      -6.531139      2.755284     -0.376964
  O      -4.628129      1.450534      1.672692
  H      -4.761986      0.989341      2.510331
  H      -3.672062      1.449527      1.539039
  O      -5.866755     -0.345005     -2.766369
  H      -6.365421      0.444961     -3.011380
  H      -4.936590     -0.085127     -2.848982
33
Coordinates from ORCA-job pb_P1_cplx E -1183.163485491125
  Pb     -5.667284     -0.092662     -0.138763
  C       3.641708     -0.145251      0.609668
  O       2.314993      0.161122      0.182004
  C       1.349324     -0.645219      0.632619
  O       1.585838     -1.589474      1.366481
  C       0.015208     -0.279353      0.150761
  C      -1.066381     -1.069641      0.544126
  C      -2.332878     -0.759366      0.100677
  O      -3.447612     -1.485943      0.424474
  C      -2.570537      0.340754     -0.736419
  O      -3.767248      0.659069     -1.173281
  C      -1.464006      1.121878     -1.111403
  O      -1.698654      2.196582     -1.921079
  C      -0.189448      0.823375     -0.682434
  H       3.716612     -0.082852      1.695884
  H       4.280330      0.603242      0.146767
  H       3.930361     -1.142800      0.276618
  H      -0.914675     -1.926696      1.190022
  H      -3.252646     -2.123786      1.122680
  H      -2.657267      2.207756     -2.075790
  H       0.635008      1.449713     -0.996915
  O      -7.141052     -2.644625     -1.169061
  H      -6.651740     -2.472892     -1.982542
  H      -7.912083     -2.071912     -1.244645
  O      -6.211880      2.184028     -1.106196
  H      -5.314006      2.500772     -1.273970
  H      -6.543522      2.756130     -0.402518
  O      -4.699440      1.468653      1.708030
  H      -4.854311      1.007268      2.541397
  H      -3.738566      1.473808      1.607512
  O      -5.798668     -0.350830     -2.764477
  H      -6.296442      0.434834     -3.021881
  H      -4.871218     -0.080996     -2.828418
33
Coordinates from ORCA-job pb_P1_cplx E -1183.163637186662
  Pb     -5.666604     -0.087746     -0.132448
  C       3.640872     -0.144890      0.613835
  O       2.314175      0.160126      0.184396
  C       1.349382     -0.647846      0.633459
  O       1.585505     -1.589647      1.370392
  C       0.015074     -0.282422      0.151641
  C      -1.066453     -1.074467      0.541975
  C      -2.333032     -0.764150      0.098285
  O      -3.447508     -1.491229      0.419892
  C      -2.570345      0.335597     -0.737793
  O      -3.767075      0.654865     -1.175334
  C      -1.464700      1.118327     -1.111595
  O      -1.699071      2.193303     -1.919155
  C      -0.190291      0.820495     -0.681330
  H       3.715048     -0.084686      1.700209
  H       4.278397      0.605369      0.152285
  H       3.931848     -1.141754      0.280731
  H      -0.914566     -1.931966      1.187341
  H      -3.258831     -2.113594      1.133372
  H      -2.657558      2.205097     -2.074358
  H       0.633916      1.448335     -0.993966
  O      -7.120670     -2.658482     -1.190211
  H      -6.636529     -2.446656     -1.997755
  H      -7.898369     -2.091587     -1.235630
  O      -6.213048      2.188530     -1.102245
  H      -5.315239      2.500896     -1.278143
  H      -6.537103      2.757379     -0.392683
  O      -4.690264      1.472467      1.695225
  H      -4.838405      1.017678      2.533454
  H      -3.730331      1.487561      1.590156
  O      -5.815953     -0.350974     -2.759482
  H      -6.332182      0.424196     -3.014102
  H      -4.892273     -0.063444     -2.820491
33
Coordinates from ORCA-job pb_P1_cplx E -1183.163847664669
  Pb     -5.667563     -0.078020     -0.115676
  C       3.637087     -0.141694      0.622980
  O       2.310823      0.156840      0.186536
  C       1.348353     -0.653904      0.633713
  O       1.582611     -1.590679      1.376845
  C       0.013219     -0.291715      0.147934
  C      -1.067092     -1.085139      0.537749
  C      -2.334958     -0.774408      0.096337
  O      -3.450007     -1.498840      0.422191
  C      -2.572663      0.321655     -0.742222
  O      -3.770195      0.645789     -1.177665
  C      -1.468253      1.105163     -1.119382
  O      -1.702424      2.178874     -1.924480
  C      -0.193328      0.809333     -0.687950
  H       3.707868     -0.081606      1.709577
  H       4.272616      0.611202      0.162971
  H       3.934848     -1.137744      0.293405
  H      -0.913536     -1.940483      1.185550
  H      -3.272352     -2.092446      1.162402
  H      -2.660759      2.192855     -2.080812
  H       0.630629      1.438812     -0.998271
  O      -7.076923     -2.685098     -1.240933
  H      -6.605921     -2.380701     -2.027447
  H      -7.866982     -2.134006     -1.224254
  O      -6.220733      2.195403     -1.086808
  H      -5.322996      2.501125     -1.278810
  H      -6.532189      2.758049     -0.366873
  O      -4.674592      1.479756      1.674525
  H      -4.802059      1.040616      2.524062
  H      -3.717330      1.511386      1.553378
  O      -5.832468     -0.344749     -2.748264
  H      -6.385088      0.406989     -2.997220
  H      -4.919822     -0.017931     -2.803160
33
Coordinates from ORCA-job pb_P1_cplx E -1183.164030378034
  Pb     -5.669795     -0.069384     -0.105677
  C       3.638057     -0.153126      0.614063
  O       2.311569      0.146600      0.178840
  C       1.348649     -0.659947      0.631150
  O       1.580431     -1.594428      1.377382
  C       0.012451     -0.295079      0.146619
  C      -1.068438     -1.083515      0.543430
  C      -2.337196     -0.769716      0.105502
  O      -3.454057     -1.489291      0.437661
  C      -2.573845      0.323038     -0.736729
  O      -3.771732      0.652597     -1.169125
  C      -1.468315      1.101882     -1.121801
  O      -1.700628      2.172868     -1.928706
  C      -0.192738      0.803379     -0.693330
  H       3.711625     -0.090768      1.700347
  H       4.274233      0.597223      0.150816
  H       3.933633     -1.150704      0.287038
  H      -0.914908     -1.936618      1.194012
  H      -3.285095     -2.063813      1.194651
  H      -2.659138      2.191622     -2.083486
  H       0.632973      1.428837     -1.006945
  O      -7.032562     -2.717482     -1.284041
  H      -6.571530     -2.347087     -2.048579
  H      -7.835142     -2.187176     -1.229947
  O      -6.228867      2.199907     -1.078829
  H      -5.334585      2.510588     -1.278237
  H      -6.540660      2.755302     -0.353073
  O      -4.694440      1.490076      1.675408
  H      -4.815607      1.059198      2.530340
  H      -3.737600      1.536544      1.555316
  O      -5.824466     -0.342471     -2.745492
  H      -6.401608      0.390442     -2.993830
  H      -4.922852      0.015186     -2.794823
33
Coordinates from ORCA-job pb_P1_cplx E -1183.164325399809
  Pb     -5.672158     -0.059034     -0.090782
  C       3.638573     -0.179225      0.595186
  O       2.312219      0.125901      0.163627
  C       1.346142     -0.668070      0.628916
  O       1.572197     -1.599497      1.379885
  C       0.008762     -0.296441      0.145768
  C      -1.073729     -1.073128      0.558063
  C      -2.342992     -0.753547      0.124443
  O      -3.463682     -1.464720      0.466879
  C      -2.577676      0.333669     -0.725564
  O      -3.775566      0.671752     -1.152798
  C      -1.467997      1.100358     -1.126041
  O      -1.695913      2.165517     -1.940279
  C      -0.191498      0.796003     -0.703471
  H       3.718041     -0.107398      1.680463
  H       4.278854      0.562062      0.123044
  H       3.925621     -1.181402      0.274585
  H      -0.921171     -1.921628      1.214435
  H      -3.308136     -2.016044      1.243587
  H      -2.654499      2.192369     -2.092875
  H       0.638524      1.410846     -1.025811
  O      -6.952386     -2.770154     -1.358625
  H      -6.510748     -2.297553     -2.078322
  H      -7.774952     -2.280832     -1.248249
  O      -6.248484      2.201770     -1.061229
  H      -5.362129      2.527543     -1.271377
  H      -6.562757      2.745971     -0.327453
  O      -4.728326      1.507526      1.684219
  H      -4.836204      1.088879      2.547212
  H      -3.772754      1.576314      1.561886
  O      -5.802003     -0.340509     -2.743159
  H      -6.414404      0.362027     -2.991702
  H      -4.920952      0.065355     -2.784535
33
Coordinates from ORCA-job pb_P1_cplx E -1183.164537394244
  Pb     -5.671893     -0.055259     -0.082655
  C       3.635780     -0.198849      0.586235
  O       2.311254      0.109043      0.152485
  C       1.340494     -0.673286      0.626591
  O       1.560327     -1.604003      1.379917
  C       0.003945     -0.296156      0.139805
  C      -1.080971     -1.060206      0.566668
  C      -2.349225     -0.733171      0.135849
  O      -3.475063     -1.434962      0.487681
  C      -2.581782      0.351169     -0.720509
  O      -3.778653      0.699074     -1.137954
  C      -1.465092      1.100960     -1.135957
  O      -1.688560      2.162120     -1.959560
  C      -0.188463      0.789854     -0.719272
  H       3.714409     -0.114795      1.670683
  H       4.282106      0.534109      0.109114
  H       3.917474     -1.204406      0.271696
  H      -0.932121     -1.904217      1.229105
  H      -3.325989     -1.982570      1.268242
  H      -2.647446      2.195516     -2.108549
  H       0.646586      1.392059     -1.051088
  O      -6.894660     -2.802587     -1.404229
  H      -6.470058     -2.265746     -2.086805
  H      -7.732779     -2.350847     -1.256547
  O      -6.261108      2.201120     -1.039829
  H      -5.384925      2.546210     -1.258326
  H      -6.577340      2.737346     -0.300962
  O      -4.750502      1.513036      1.701430
  H      -4.849856      1.098998      2.567963
  H      -3.795974      1.590928      1.573641
  O      -5.780049     -0.344204     -2.747560
  H      -6.408154      0.341593     -2.998463
  H      -4.913894      0.086815     -2.788916
33
Coordinates from ORCA-job pb_P1_cplx E -1183.164722884439
  Pb     -5.673077     -0.046652     -0.064335
  C       3.629999     -0.208512      0.573981
  O       2.304786      0.100009      0.143109
  C       1.333418     -0.678767      0.622651
  O       1.554447     -1.607048      1.378974
  C      -0.003224     -0.300271      0.139389
  C      -1.089932     -1.058128      0.573530
  C      -2.357863     -0.727981      0.144623
  O      -3.485286     -1.425165      0.500711
  C      -2.588879      0.354024     -0.714821
  O      -3.786017      0.705824     -1.125559
  C      -1.470649      1.096293     -1.138469
  O      -1.693491      2.155177     -1.966620
  C      -0.194399      0.781942     -0.724349
  H       3.710586     -0.123028      1.658157
  H       4.275811      0.523543      0.094753
  H       3.910101     -1.214511      0.259500
  H      -0.944095     -1.899864      1.239472
  H      -3.342009     -1.945349      1.301009
  H      -2.653234      2.192814     -2.108721
  H       0.642130      1.378457     -1.062682
  O      -6.834447     -2.827628     -1.474970
  H      -6.430018     -2.202342     -2.099566
  H      -7.678685     -2.411446     -1.269430
  O      -6.253778      2.207274     -1.029108
  H      -5.379503      2.553396     -1.256431
  H      -6.562545      2.739814     -0.283880
  O      -4.764049      1.525059      1.709313
  H      -4.857479      1.121321      2.581034
  H      -3.810765      1.614627      1.578559
  O      -5.766974     -0.357861     -2.742758
  H      -6.418721      0.306133     -2.996247
  H      -4.914340      0.103532     -2.770895
33
Coordinates from ORCA-job pb_P1_cplx E -1183.164987876016
  Pb     -5.671775     -0.044002     -0.057161
  C       3.619712     -0.221612      0.557270
  O       2.294275      0.091706      0.132060
  C       1.319260     -0.683726      0.613986
  O       1.544678     -1.614744      1.367630
  C      -0.014602     -0.300471      0.138439
  C      -1.107864     -1.045618      0.582522
  C      -2.372480     -0.705626      0.156047
  O      -3.504584     -1.392244      0.518385
  C      -2.599986      0.378444     -0.704755
  O      -3.795879      0.736532     -1.102442
  C      -1.474951      1.101941     -1.138745
  O      -1.694966      2.160733     -1.976640
  C      -0.201067      0.777884     -0.729848
  H       3.699322     -0.139423      1.641715
  H       4.266034      0.512602      0.081854
  H       3.896968     -1.225397      0.233844
  H      -0.970898     -1.885587      1.252644
  H      -3.355767     -1.918891      1.314020
  H      -2.656473      2.205992     -2.102811
  H       0.639045      1.361540     -1.081391
  O      -6.780083     -2.830054     -1.521493
  H      -6.391612     -2.143899     -2.088825
  H      -7.633924     -2.459914     -1.271756
  O      -6.239882      2.210532     -1.013036
  H      -5.374440      2.573777     -1.245998
  H      -6.542402      2.746157     -0.268726
  O      -4.777988      1.527925      1.737070
  H      -4.873570      1.125863      2.608684
  H      -3.825119      1.609373      1.599699
  O      -5.737616     -0.401055     -2.754170
  H      -6.388527      0.257163     -3.028566
  H      -4.885021      0.058783     -2.779583
33
Coordinates from ORCA-job pb_P1_cplx E -1183.165153080849
  Pb     -5.674726     -0.037140     -0.050175
  C       3.620296     -0.223939      0.552712
  O       2.293790      0.093605      0.132592
  C       1.319605     -0.683686      0.613410
  O       1.546720     -1.615390      1.365914
  C      -0.014522     -0.299987      0.142330
  C      -1.108080     -1.047930      0.581960
  C      -2.373299     -0.707967      0.157585
  O      -3.503686     -1.395910      0.521537
  C      -2.601012      0.376509     -0.701974
  O      -3.798127      0.733723     -1.103830
  C      -1.478260      1.105116     -1.132385
  O      -1.696822      2.165727     -1.965720
  C      -0.204401      0.780884     -0.722456
  H       3.704377     -0.148208      1.637301
  H       4.264608      0.511482      0.076693
  H       3.894393     -1.227765      0.226614
  H      -0.967783     -1.889005      1.250181
  H      -3.354318     -1.914609      1.322249
  H      -2.658108      2.213491     -2.093067
  H       0.634055      1.368699     -1.071383
  O      -6.774861     -2.831715     -1.553831
  H      -6.391593     -2.121688     -2.096147
  H      -7.625170     -2.472602     -1.279428
  O      -6.235477      2.212489     -1.015167
  H      -5.368105      2.570895     -1.252031
  H      -6.529339      2.753776     -0.271692
  O      -4.778222      1.538384      1.734729
  H      -4.870522      1.140421      2.608336
  H      -3.825446      1.618515      1.595278
  O      -5.746069     -0.418750     -2.747571
  H      -6.398928      0.234277     -3.026885
  H      -4.893151      0.042983     -2.765752
33
Coordinates from ORCA-job pb_P1_cplx E -1183.165322305388
  Pb     -5.683692     -0.024212     -0.048683
  C       3.626118     -0.220658      0.548050
  O       2.297827      0.103090      0.135896
  C       1.326079     -0.678845      0.614442
  O       1.556424     -1.611702      1.364508
  C      -0.009175     -0.295461      0.150813
  C      -1.101784     -1.050368      0.581954
  C      -2.369457     -0.712793      0.162980
  O      -3.495449     -1.403391      0.530298
  C      -2.599553      0.371776     -0.694289
  O      -3.799279      0.725576     -1.103882
  C      -1.482588      1.112916     -1.116865
  O      -1.701665      2.175918     -1.941816
  C      -0.207515      0.790903     -0.706214
  H       3.719037     -0.152950      1.632487
  H       4.267135      0.514976      0.068313
  H       3.894610     -1.225779      0.220955
  H      -0.954608     -1.894257      1.245776
  H      -3.339682     -1.932345      1.322589
  H      -2.662610      2.222619     -2.072415
  H       0.625487      1.390054     -1.050263
  O      -6.819375     -2.835739     -1.579446
  H      -6.427309     -2.131569     -2.112345
  H      -7.663636     -2.474038     -1.293502
  O      -6.225431      2.220975     -1.023285
  H      -5.354103      2.568449     -1.262540
  H      -6.509327      2.776914     -0.287052
  O      -4.769083      1.549349      1.726392
  H      -4.860193      1.150734      2.600562
  H      -3.816085      1.610712      1.581785
  O      -5.760701     -0.438973     -2.740053
  H      -6.397350      0.223363     -3.031284
  H      -4.895247     -0.000562     -2.753940
33
Coordinates from ORCA-job pb_P1_cplx E -1183.165413743424
  Pb     -5.692314     -0.010836     -0.033044
  C       3.624876     -0.227037      0.534977
  O       2.295825      0.098255      0.126178
  C       1.324660     -0.679821      0.611508
  O       1.554319     -1.609964      1.364557
  C      -0.012161     -0.294605      0.151015
  C      -1.104009     -1.045794      0.589501
  C      -2.373471     -0.708065      0.175062
  O      -3.499150     -1.395525      0.549251
  C      -2.604947      0.372414     -0.686054
  O      -3.805654      0.727012     -1.093296
  C      -1.489032      1.111380     -1.115702
  O      -1.709522      2.170970     -1.943162
  C      -0.212298      0.789155     -0.709277
  H       3.723587     -0.153508      1.618533
  H       4.266200      0.503430      0.047796
  H       3.889043     -1.235138      0.213440
  H      -0.955326     -1.887797      1.255467
  H      -3.341754     -1.920631      1.343497
  H      -2.670784      2.218148     -2.071512
  H       0.619238      1.387552     -1.058407
  O      -6.800507     -2.848526     -1.643661
  H      -6.414690     -2.094679     -2.119027
  H      -7.642619     -2.512988     -1.321759
  O      -6.217700      2.230270     -1.016845
  H      -5.343945      2.570921     -1.259741
  H      -6.495890      2.792288     -0.282237
  O      -4.784853      1.560646      1.738027
  H      -4.873456      1.166537      2.614637
  H      -3.831966      1.618461      1.589396
  O      -5.747209     -0.456326     -2.732532
  H      -6.382517      0.202099     -3.033903
  H      -4.884156     -0.013611     -2.732758
33
Coordinates from ORCA-job pb_P1_cplx E -1183.165566974651
  Pb     -5.696058      0.000806     -0.027123
  C       3.626228     -0.232767      0.527511
  O       2.297203      0.092527      0.119007
  C       1.325442     -0.677656      0.614162
  O       1.551805     -1.603190      1.373007
  C      -0.012634     -0.290688      0.152392
  C      -1.103576     -1.036068      0.600754
  C      -2.374318     -0.699177      0.187590
  O      -3.500621     -1.381973      0.566598
  C      -2.605334      0.376091     -0.678986
  O      -3.806251      0.730903     -1.085038
  C      -1.489391      1.110196     -1.118119
  O      -1.710822      2.163676     -1.951532
  C      -0.211298      0.787752     -0.714790
  H       3.729467     -0.144955      1.609630
  H       4.270073      0.487628      0.028781
  H       3.885020     -1.246282      0.218771
  H      -0.954787     -1.874683      1.270827
  H      -3.340846     -1.919805      1.351639
  H      -2.672038      2.210398     -2.080436
  H       0.620325      1.382143     -1.070322
  O      -6.805569     -2.876756     -1.685703
  H      -6.421321     -2.102429     -2.130409
  H      -7.647880     -2.555474     -1.349121
  O      -6.222980      2.241580     -1.003591
  H      -5.350934      2.581223     -1.251420
  H      -6.500863      2.806872     -0.270879
  O      -4.787899      1.564961      1.747716
  H      -4.870494      1.168444      2.624338
  H      -3.835808      1.618200      1.591554
  O      -5.738008     -0.452744     -2.730528
  H      -6.365350      0.211051     -3.037890
  H      -4.872666     -0.015119     -2.728462
33
Coordinates from ORCA-job pb_P1_cplx E -1183.165744914271
  Pb     -5.697248      0.021395     -0.016143
  C       3.626431     -0.237394      0.518274
  O       2.297539      0.085932      0.109021
  C       1.324525     -0.672359      0.618298
  O       1.547166     -1.589878      1.387129
  C      -0.014504     -0.284409      0.152898
  C      -1.104648     -1.020822      0.615595
  C      -2.376262     -0.686113      0.200792
  O      -3.503832     -1.361522      0.585546
  C      -2.605128      0.382206     -0.673532
  O      -3.805559      0.735329     -1.077282
  C      -1.488307      1.107279     -1.126066
  O      -1.711805      2.151728     -1.970065
  C      -0.209114      0.784910     -0.725469
  H       3.733999     -0.126759      1.597954
  H       4.273831      0.468448      0.003564
  H       3.879051     -1.258122      0.228811
  H      -0.957605     -1.853395      1.293360
  H      -3.331921     -1.924105      1.350542
  H      -2.673075      2.197076     -2.098746
  H       0.623767      1.371006     -1.091209
  O      -6.823304     -2.916116     -1.744719
  H      -6.437396     -2.124822     -2.152391
  H      -7.664926     -2.609310     -1.392162
  O      -6.223058      2.264093     -0.983803
  H      -5.352222      2.596768     -1.237733
  H      -6.500405      2.837130     -0.256161
  O      -4.790670      1.569241      1.771709
  H      -4.875905      1.160741      2.643254
  H      -3.838840      1.618620      1.614840
  O      -5.729288     -0.452821     -2.720624
  H      -6.330204      0.230474     -3.042100
  H      -4.853265     -0.039744     -2.713458
33
Coordinates from ORCA-job pb_P1_cplx E -1183.165798228183
  Pb     -5.693959      0.029595     -0.013475
  C       3.626485     -0.241872      0.515434
  O       2.297572      0.081476      0.106738
  C       1.323375     -0.670683      0.622913
  O       1.545874     -1.583162      1.398062
  C      -0.015236     -0.283005      0.156852
  C      -1.106277     -1.014827      0.624962
  C      -2.377190     -0.680309      0.207942
  O      -3.506077     -1.350905      0.596805
  C      -2.604908      0.385014     -0.671525
  O      -3.804973      0.737044     -1.077530
  C      -1.486392      1.104471     -1.128695
  O      -1.709076      2.144336     -1.979703
  C      -0.207735      0.781701     -0.727329
  H       3.735674     -0.123020      1.594076
  H       4.274677      0.458950     -0.005135
  H       3.876449     -1.264963      0.232218
  H      -0.960681     -1.843566      1.307716
  H      -3.330224     -1.925738      1.352002
  H      -2.670368      2.190560     -2.107378
  H       0.626940      1.362053     -1.097883
  O      -6.819201     -2.931259     -1.782084
  H      -6.439966     -2.122811     -2.161801
  H      -7.658193     -2.644215     -1.408036
  O      -6.238228      2.272361     -0.968130
  H      -5.369926      2.605796     -1.231814
  H      -6.512667      2.846977     -0.241461
  O      -4.781704      1.571180      1.775261
  H      -4.856824      1.160400      2.646026
  H      -3.831923      1.627462      1.607364
  O      -5.733440     -0.448345     -2.716673
  H      -6.330623      0.235217     -3.044387
  H      -4.853435     -0.041230     -2.711407
33
Coordinates from ORCA-job pb_P1_cplx E -1183.165862818864
  Pb     -5.689355      0.034589     -0.012168
  C       3.627251     -0.243778      0.516927
  O       2.298765      0.079251      0.106895
  C       1.323154     -0.669981      0.625367
  O       1.546098     -1.578854      1.405225
  C      -0.014314     -0.283297      0.158397
  C      -1.106835     -1.013118      0.627320
  C      -2.376216     -0.677973      0.207344
  O      -3.506516     -1.345250      0.598917
  C      -2.602907      0.386355     -0.674716
  O      -3.802288      0.737174     -1.083130
  C      -1.482576      1.102192     -1.131942
  O      -1.703715      2.140636     -1.987315
  C      -0.204978      0.779246     -0.728597
  H       3.734919     -0.122609      1.595418
  H       4.275683      0.456851     -0.003713
  H       3.877722     -1.266766      0.234025
  H      -0.963405     -1.839384      1.313493
  H      -3.325205     -1.927959      1.346914
  H      -2.665095      2.187698     -2.113876
  H       0.631901      1.355485     -1.100341
  O      -6.816831     -2.937771     -1.800238
  H      -6.443221     -2.122889     -2.169837
  H      -7.652685     -2.660544     -1.412273
  O      -6.249127      2.279490     -0.961442
  H      -5.381860      2.610725     -1.231794
  H      -6.522019      2.854451     -0.234925
  O      -4.775850      1.571033      1.778293
  H      -4.850353      1.152942      2.645087
  H      -3.826787      1.641765      1.613012
  O      -5.746176     -0.446144     -2.709162
  H      -6.337272      0.239641     -3.042447
  H      -4.862092     -0.048520     -2.704791
33
Coordinates from ORCA-job pb_P1_cplx E -1183.165884821175
  Pb     -5.687220      0.036866     -0.011838
  C       3.627384     -0.243986      0.519530
  O       2.299271      0.079491      0.108286
  C       1.322966     -0.669575      0.626236
  O       1.546303     -1.577937      1.406928
  C      -0.013733     -0.283749      0.159206
  C      -1.107285     -1.013578      0.626627
  C      -2.375798     -0.677385      0.206128
  O      -3.506603     -1.343265      0.599864
  C      -2.602396      0.386387     -0.677176
  O      -3.801723      0.737299     -1.087276
  C      -1.481542      1.102045     -1.132466
  O      -1.700707      2.141278     -1.988175
  C      -0.204560      0.779036     -0.727638
  H       3.733639     -0.125093      1.598369
  H       4.275525      0.458510      0.000992
  H       3.878704     -1.266093      0.234288
  H      -0.964215     -1.839280      1.313596
  H      -3.323724     -1.927807      1.345981
  H      -2.662021      2.189617     -2.114519
  H       0.633207      1.355016     -1.097854
  O      -6.818153     -2.943402     -1.811459
  H      -6.448114     -2.122355     -2.172711
  H      -7.650304     -2.671364     -1.412413
  O      -6.252137      2.282085     -0.960985
  H      -5.385193      2.611427     -1.236075
  H      -6.521961      2.857738     -0.234151
  O      -4.767837      1.570944      1.776319
  H      -4.840264      1.147730      2.640304
  H      -3.818817      1.650188      1.613099
  O      -5.757146     -0.445539     -2.703409
  H      -6.346521      0.240331     -3.038576
  H      -4.871207     -0.050896     -2.699106
33
Coordinates from ORCA-job pb_P1_cplx E -1183.165902755606
  Pb     -5.686768      0.035774     -0.014233
  C       3.627424     -0.243256      0.522495
  O       2.299725      0.080206      0.109421
  C       1.323046     -0.669583      0.626064
  O       1.546462     -1.578239      1.406551
  C      -0.013142     -0.284196      0.159140
  C      -1.107476     -1.013918      0.625611
  C      -2.375456     -0.677216      0.205003
  O      -3.506279     -1.342658      0.600349
  C      -2.602565      0.385699     -0.679316
  O      -3.801586      0.736373     -1.090781
  C      -1.481402      1.101474     -1.133049
  O      -1.699199      2.141282     -1.989054
  C      -0.204641      0.778815     -0.727505
  H       3.731666     -0.127789      1.601854
  H       4.275376      0.461904      0.007279
  H       3.880426     -1.264025      0.234008
  H      -0.964444     -1.839549      1.312752
  H      -3.321610     -1.929682      1.343974
  H      -2.660560      2.190429     -2.114730
  H       0.633433      1.355242     -1.096494
  O      -6.820688     -2.944044     -1.810409
  H      -6.451634     -2.123027     -2.173022
  H      -7.650752     -2.671365     -1.407304
  O      -6.255079      2.281387     -0.964317
  H      -5.388267      2.610159     -1.240428
  H      -6.524688      2.857609     -0.237917
  O      -4.761257      1.568539      1.774315
  H      -4.832886      1.139122      2.635464
  H      -3.812256      1.655489      1.615035
  O      -5.762576     -0.441342     -2.698739
  H      -6.349587      0.245514     -3.036264
  H      -4.874942     -0.050448     -2.695827
33
Coordinates from ORCA-job pb_P1_cplx E -1183.165925639121
  Pb     -5.689173      0.035251     -0.015840
  C       3.626903     -0.243752      0.523227
  O       2.299474      0.080247      0.109131
  C       1.322600     -0.669878      0.625171
  O       1.545686     -1.579486      1.404603
  C      -0.013418     -0.284003      0.158968
  C      -1.108430     -1.012442      0.626205
  C      -2.376436     -0.675124      0.206768
  O      -3.506985     -1.339638      0.604866
  C      -2.603983      0.386275     -0.679058
  O      -3.802725      0.737381     -1.090896
  C      -1.482675      1.101332     -1.133401
  O      -1.699294      2.140716     -1.990267
  C      -0.205806      0.778547     -0.728209
  H       3.729845     -0.132567      1.603122
  H       4.274779      0.463841      0.011255
  H       3.880920     -1.263316      0.231330
  H      -0.965155     -1.837904      1.313547
  H      -3.320453     -1.929155      1.345956
  H      -2.660778      2.191318     -2.114740
  H       0.632065      1.355241     -1.097395
  O      -6.820455     -2.946508     -1.815429
  H      -6.452678     -2.121132     -2.171489
  H      -7.647440     -2.676784     -1.404202
  O      -6.255894      2.280131     -0.969231
  H      -5.389455      2.609279     -1.245966
  H      -6.525257      2.857875     -0.243784
  O      -4.756696      1.566004      1.773905
  H      -4.826808      1.128647      2.631358
  H      -3.807673      1.660177      1.619131
  O      -5.764001     -0.437055     -2.692978
  H      -6.347788      0.250416     -3.034601
  H      -4.874998     -0.049248     -2.691130
33
Coordinates from ORCA-job pb_P1_cplx E -1183.165942322876
  Pb     -5.692757      0.034032     -0.018184
  C       3.626476     -0.244004      0.522895
  O       2.298986      0.080233      0.108948
  C       1.322365     -0.670207      0.624880
  O       1.545113     -1.580756      1.403109
  C      -0.013922     -0.283519      0.159270
  C      -1.108955     -1.010589      0.628326
  C      -2.377537     -0.673522      0.210031
  O      -3.507592     -1.337402      0.609981
  C      -2.605276      0.386636     -0.676946
  O      -3.803818      0.737876     -1.088730
  C      -1.484057      1.100882     -1.133296
  O      -1.700800      2.138820     -1.991349
  C      -0.206845      0.778151     -0.728860
  H       3.729005     -0.136189      1.603168
  H       4.274260      0.465187      0.013076
  H       3.881074     -1.262794      0.228678
  H      -0.965351     -1.835765      1.315988
  H      -3.319566     -1.930015      1.348178
  H      -2.662363      2.189972     -2.115127
  H       0.630389      1.354866     -1.099559
  O      -6.819886     -2.946543     -1.817513
  H      -6.452755     -2.119496     -2.169982
  H      -7.644331     -2.679047     -1.399606
  O      -6.257577      2.277714     -0.974062
  H      -5.391853      2.608615     -1.250516
  H      -6.527798      2.856794     -0.249738
  O      -4.753265      1.562687      1.773104
  H      -4.820941      1.118329      2.627423
  H      -3.804495      1.662174      1.620425
  O      -5.762316     -0.430369     -2.688938
  H      -6.343590      0.257156     -3.034996
  H      -4.872204     -0.045223     -2.690152
33
Coordinates from ORCA-job pb_P1_cplx E -1183.165956467467
  Pb     -5.696427      0.034978     -0.018367
  C       3.626028     -0.245764      0.520180
  O       2.298150      0.079045      0.108131
  C       1.321917     -0.670896      0.625121
  O       1.544429     -1.581824      1.402752
  C      -0.014902     -0.283041      0.160235
  C      -1.109553     -1.008411      0.632107
  C      -2.378941     -0.671675      0.214913
  O      -3.508686     -1.334417      0.616298
  C      -2.606241      0.387562     -0.673036
  O      -3.804848      0.739053     -1.084200
  C      -1.485207      1.100497     -1.132631
  O      -1.702827      2.136473     -1.991930
  C      -0.207618      0.777354     -0.729311
  H       3.729788     -0.139224      1.600492
  H       4.273743      0.463325      0.010230
  H       3.879844     -1.264643      0.225448
  H      -0.965830     -1.832904      1.320561
  H      -3.320056     -1.928908      1.352852
  H      -2.664409      2.187876     -2.115491
  H       0.629030      1.353187     -1.102671
  O      -6.813906     -2.948095     -1.827080
  H      -6.449409     -2.116042     -2.169923
  H      -7.635014     -2.687491     -1.398417
  O      -6.259431      2.276691     -0.976541
  H      -5.395057      2.609967     -1.254054
  H      -6.529752      2.856729     -0.252839
  O      -4.752990      1.561819      1.773627
  H      -4.817313      1.112576      2.625809
  H      -3.804820      1.665744      1.620565
  O      -5.760463     -0.425107     -2.685819
  H      -6.341158      0.260634     -3.036474
  H      -4.870253     -0.040382     -2.690613
33
Coordinates from ORCA-job pb_P1_cplx E -1183.165966087998
  Pb     -5.698640      0.036452     -0.017908
  C       3.625680     -0.246963      0.518482
  O       2.297398      0.078099      0.108427
  C       1.321544     -0.671540      0.626142
  O       1.544112     -1.582484      1.403620
  C      -0.015748     -0.283076      0.161455
  C      -1.109790     -1.007611      0.635303
  C      -2.379789     -0.671354      0.218451
  O      -3.509445     -1.333241      0.620162
  C      -2.606414      0.387658     -0.669903
  O      -3.805211      0.739104     -1.080600
  C      -1.485590      1.099850     -1.131752
  O      -1.704425      2.134415     -1.991707
  C      -0.207766      0.776446     -0.729073
  H       3.730890     -0.139971      1.598651
  H       4.273311      0.461302      0.007356
  H       3.878578     -1.266277      0.224374
  H      -0.966106     -1.831435      1.324519
  H      -3.320910     -1.928810      1.355922
  H      -2.665955      2.185225     -2.115851
  H       0.628545      1.351340     -1.104501
  O      -6.807420     -2.949036     -1.835683
  H      -6.446537     -2.113532     -2.171844
  H      -7.624513     -2.694706     -1.395607
  O      -6.262198      2.276040     -0.977464
  H      -5.399468      2.611518     -1.257189
  H      -6.531862      2.856350     -0.253702
  O      -4.751436      1.561965      1.773355
  H      -4.811377      1.109453      2.624119
  H      -3.804204      1.669864      1.617227
  O      -5.761793     -0.419495     -2.683488
  H      -6.343745      0.263366     -3.037809
  H      -4.871897     -0.034230     -2.693559
33
Coordinates from ORCA-job pb_P1_cplx E -1183.165961362969
  Pb     -5.700099      0.039807     -0.015616
  C       3.625138     -0.249273      0.516368
  O       2.296463      0.076473      0.108738
  C       1.320785     -0.672579      0.627326
  O       1.543615     -1.583231      1.405078
  C      -0.016896     -0.283575      0.163053
  C      -1.110392     -1.007544      0.638509
  C      -2.380749     -0.671450      0.221726
  O      -3.510554     -1.332362      0.623459
  C      -2.606571      0.387621     -0.666835
  O      -3.805643      0.738896     -1.077201
  C      -1.485943      1.099220     -1.130290
  O      -1.705921      2.132920     -1.990517
  C      -0.207980      0.775371     -0.728169
  H       3.732536     -0.140213      1.596157
  H       4.272764      0.457155      0.002732
  H       3.876331     -1.269480      0.223884
  H      -0.966859     -1.830701      1.328492
  H      -3.322569     -1.927819      1.359505
  H      -2.667391      2.182871     -2.115399
  H       0.628315      1.349062     -1.105301
  O      -6.795626     -2.951300     -1.849062
  H      -6.440927     -2.110198     -2.175961
  H      -7.606353     -2.706024     -1.392317
  O      -6.265628      2.276374     -0.977712
  H      -5.405014      2.613840     -1.261409
  H      -6.533451      2.856685     -0.253355
  O      -4.750224      1.564593      1.773993
  H      -4.804260      1.109059      2.623462
  H      -3.804421      1.677635      1.612920
  O      -5.766225     -0.414077     -2.680215
  H      -6.351174      0.263988     -3.038955
  H      -4.877258     -0.027059     -2.697163
33
Coordinates from ORCA-job pb_P1_cplx E -1183.165990517444
  Pb     -5.700879      0.044162     -0.012857
  C       3.624085     -0.252168      0.515907
  O       2.295260      0.074748      0.110309
  C       1.319361     -0.673942      0.628934
  O       1.542427     -1.584624      1.406744
  C      -0.018359     -0.284438      0.165012
  C      -1.111676     -1.008253      0.640984
  C      -2.381921     -0.671721      0.223864
  O      -3.512226     -1.331666      0.625237
  C      -2.606824      0.387790     -0.664674
  O      -3.805976      0.738850     -1.075092
  C      -1.486093      1.099086     -1.128207
  O      -1.706629      2.132908     -1.988221
  C      -0.208232      0.774600     -0.726238
  H       3.733543     -0.140379      1.595233
  H       4.271958      0.452131     -0.000366
  H       3.873312     -1.273312      0.225090
  H      -0.968534     -1.831038      1.331413
  H      -3.324802     -1.927276      1.361343
  H      -2.668039      2.181813     -2.113977
  H       0.628571      1.347072     -1.103898
  O      -6.780131     -2.955023     -1.862397
  H      -6.434649     -2.108440     -2.182565
  H      -7.580340     -2.719392     -1.382449
  O      -6.270757      2.276667     -0.978719
  H      -5.413132      2.616330     -1.268708
  H      -6.535342      2.856818     -0.253234
  O      -4.745032      1.567682      1.774077
  H      -4.789446      1.106276      2.620739
  H      -3.801486      1.687744      1.604833
  O      -5.776425     -0.406055     -2.674999
  H      -6.365363      0.265426     -3.039758
  H      -4.888406     -0.017692     -2.703436
33
Coordinates from ORCA-job pb_P1_cplx E -1183.166014163662
  Pb     -5.700923      0.049205     -0.009575
  C       3.622775     -0.257507      0.514818
  O       2.294096      0.071808      0.110851
  C       1.317421     -0.675901      0.629671
  O       1.540371     -1.586656      1.407663
  C      -0.019968     -0.285313      0.166768
  C      -1.113816     -1.008913      0.642275
  C      -2.383430     -0.671012      0.224873
  O      -3.514490     -1.330244      0.625692
  C      -2.607782      0.389113     -0.663301
  O      -3.806738      0.740326     -1.074022
  C      -1.486557      1.100069     -1.125640
  O      -1.706463      2.135017     -1.985059
  C      -0.208981      0.774461     -0.723850
  H       3.734543     -0.142539      1.593572
  H       4.271351      0.443978     -0.004485
  H       3.869098     -1.279829      0.225840
  H      -0.971139     -1.831963      1.332438
  H      -3.327823     -1.925341      1.362399
  H      -2.667893      2.183750     -2.110920
  H       0.628832      1.345850     -1.100819
  O      -6.757827     -2.959893     -1.872963
  H      -6.423249     -2.107918     -2.190085
  H      -7.546458     -2.733208     -1.370007
  O      -6.276856      2.277488     -0.980259
  H      -5.422284      2.619538     -1.276250
  H      -6.538654      2.857078     -0.253481
  O      -4.742921      1.572999      1.776416
  H      -4.777047      1.105498      2.620199
  H      -3.801827      1.699577      1.598573
  O      -5.786879     -0.399591     -2.669830
  H      -6.380416      0.264280     -3.041242
  H      -4.900249     -0.009526     -2.710335
33
Coordinates from ORCA-job pb_P1_cplx E -1183.166043740055
  Pb     -5.700441      0.052890     -0.007651
  C       3.621398     -0.262843      0.515044
  O       2.293270      0.069144      0.111001
  C       1.315438     -0.678044      0.629004
  O       1.537775     -1.589659      1.406392
  C      -0.021140     -0.286138      0.167121
  C      -1.116276     -1.010174      0.639992
  C      -2.384795     -0.670048      0.222553
  O      -3.516690     -1.329565      0.622173
  C      -2.609271      0.391507     -0.664071
  O      -3.807588      0.743658     -1.074975
  C      -1.487102      1.102742     -1.123056
  O      -1.705100      2.140587     -1.980643
  C      -0.210032      0.775765     -0.721278
  H       3.734100     -0.146227      1.593488
  H       4.271005      0.436812     -0.005561
  H       3.865443     -1.285820      0.226672
  H      -0.974162     -1.834782      1.328425
  H      -3.330621     -1.924239      1.359324
  H      -2.666646      2.190198     -2.105638
  H       0.629018      1.347330     -1.095308
  O      -6.737142     -2.964567     -1.869620
  H      -6.411469     -2.112065     -2.196260
  H      -7.516868     -2.738415     -1.352736
  O      -6.281221      2.278594     -0.983155
  H      -5.428419      2.622075     -1.282406
  H      -6.541680      2.857466     -0.255403
  O      -4.743336      1.578200      1.779622
  H      -4.769076      1.105325      2.620783
  H      -3.804046      1.706397      1.593655
  O      -5.795302     -0.396534     -2.666662
  H      -6.391772      0.261573     -3.043444
  H      -4.909433     -0.006459     -2.717457
33
Coordinates from ORCA-job pb_P1_cplx E -1183.166059064570
  Pb     -5.701370      0.056466     -0.006804
  C       3.619765     -0.268037      0.514910
  O       2.292149      0.066283      0.110418
  C       1.313436     -0.680732      0.627433
  O       1.534798     -1.593805      1.403393
  C      -0.022466     -0.286951      0.166660
  C      -1.118950     -1.010892      0.637289
  C      -2.386758     -0.668399      0.220775
  O      -3.519270     -1.327975      0.619854
  C      -2.611492      0.394516     -0.664156
  O      -3.809031      0.748595     -1.074676
  C      -1.488306      1.105694     -1.120691
  O      -1.704226      2.146030     -1.976441
  C      -0.211647      0.777133     -0.719359
  H       3.732459     -0.152740      1.593465
  H       4.270259      0.431434     -0.004883
  H       3.862525     -1.290961      0.225341
  H      -0.977345     -1.837379      1.323651
  H      -3.333066     -1.923891      1.355900
  H      -2.665857      2.197553     -2.100081
  H       0.628214      1.349311     -1.090843
  O      -6.716444     -2.969594     -1.863656
  H      -6.398914     -2.116695     -2.200589
  H      -7.487634     -2.742251     -1.334753
  O      -6.284864      2.280752     -0.987127
  H      -5.433171      2.625355     -1.288215
  H      -6.544758      2.859780     -0.259207
  O      -4.745295      1.582871      1.783309
  H      -4.762878      1.103168      2.620920
  H      -3.807544      1.711930      1.590372
  O      -5.801304     -0.394480     -2.663013
  H      -6.398105      0.259421     -3.046440
  H      -4.915089     -0.006825     -2.722832
33
Coordinates from ORCA-job pb_P1_cplx E -1183.166075530734
  Pb     -5.703442      0.059819     -0.007113
  C       3.618184     -0.272488      0.514184
  O       2.290856      0.063127      0.109423
  C       1.311639     -0.683571      0.626039
  O       1.532059     -1.597760      1.400829
  C      -0.023914     -0.287844      0.166033
  C      -1.121357     -1.010787      0.636105
  C      -2.389015     -0.666452      0.220899
  O      -3.521913     -1.325392      0.620201
  C      -2.613560      0.397459     -0.662812
  O      -3.810450      0.753968     -1.072327
  C      -1.489468      1.107617     -1.119182
  O      -1.704104      2.148964     -1.974030
  C      -0.213035      0.777354     -0.718784
  H       3.730291     -0.159970      1.593083
  H       4.269193      0.427862     -0.003743
  H       3.860676     -1.294952      0.222720
  H      -0.980360     -1.838482      1.321217
  H      -3.334990     -1.924323      1.353582
  H      -2.665793      2.202633     -2.096296
  H       0.627121      1.349566     -1.089718
  O      -6.696987     -2.973747     -1.860321
  H      -6.387095     -2.119509     -2.203295
  H      -7.460034     -2.747497     -1.319357
  O      -6.289086      2.283747     -0.989871
  H      -5.438646      2.629996     -1.292493
  H      -6.548945      2.863273     -0.262250
  O      -4.747509      1.586031      1.786299
  H      -4.757153      1.098912      2.619889
  H      -3.811364      1.717647      1.587521
  O      -5.805196     -0.391561     -2.659231
  H      -6.400826      0.258947     -3.050039
  H      -4.917958     -0.007904     -2.727240
33
Coordinates from ORCA-job pb_P1_cplx E -1183.166088408420
  Pb     -5.707029      0.064857     -0.008367
  C       3.615647     -0.278474      0.513307
  O       2.288686      0.058278      0.108117
  C       1.308881     -0.688149      0.623901
  O       1.528015     -1.604015      1.396865
  C      -0.026299     -0.289573      0.164640
  C      -1.124768     -1.010692      0.634818
  C      -2.392554     -0.663809      0.221783
  O      -3.525940     -1.321177      0.621907
  C      -2.616179      0.401630     -0.660223
  O      -3.812348      0.762219     -1.067629
  C      -1.490875      1.109798     -1.117640
  O      -1.704408      2.152031     -1.971242
  C      -0.214680      0.776867     -0.718849
  H       3.726114     -0.171309      1.592926
  H       4.267201      0.424208     -0.000663
  H       3.858733     -1.299802      0.218196
  H      -0.984824     -1.839663      1.318683
  H      -3.337974     -1.925155      1.350870
  H      -2.666133      2.208688     -2.091753
  H       0.625574      1.348728     -1.090221
  O      -6.668176     -2.979324     -1.857352
  H      -6.369951     -2.122178     -2.205564
  H      -7.418892     -2.757248     -1.297801
  O      -6.295656      2.289100     -0.991846
  H      -5.447358      2.638104     -1.297143
  H      -6.555412      2.869280     -0.264645
  O      -4.750616      1.590022      1.789299
  H      -4.748115      1.092600      2.616914
  H      -3.817192      1.727244      1.581776
  O      -5.810173     -0.386994     -2.653910
  H      -6.404140      0.258319     -3.055532
  H      -4.921341     -0.009725     -2.733695
33
Coordinates from ORCA-job pb_P1_cplx E -1183.166103725240
  Pb     -5.709369      0.068375     -0.010417
  C       3.613460     -0.282171      0.513745
  O       2.286906      0.054791      0.107544
  C       1.306644     -0.692172      0.621463
  O       1.524792     -1.609795      1.392489
  C      -0.028250     -0.291485      0.162316
  C      -1.127268     -1.011367      0.632573
  C      -2.395263     -0.662381      0.221302
  O      -3.529030     -1.318381      0.621951
  C      -2.617670      0.404713     -0.658923
  O      -3.813488      0.768911     -1.064186
  C      -1.491533      1.111320     -1.117383
  O      -1.704594      2.154318     -1.969598
  C      -0.215491      0.776084     -0.719965
  H       3.721384     -0.180780      1.594193
  H       4.265322      0.423749      0.004711
  H       3.858333     -1.301886      0.214400
  H      -0.988264     -1.841273      1.315519
  H      -3.340727     -1.925800      1.347984
  H      -2.666299      2.213107     -2.089039
  H       0.624718      1.347585     -1.092016
  O      -6.646690     -2.983189     -1.852238
  H      -6.357002     -2.124581     -2.204717
  H      -7.389478     -2.764047     -1.281104
  O      -6.299642      2.294323     -0.990963
  H      -5.452756      2.645238     -1.297790
  H      -6.559583      2.874465     -0.263812
  O      -4.754111      1.592947      1.790481
  H      -4.743411      1.089413      2.614379
  H      -3.822825      1.735107      1.576988
  O      -5.812623     -0.384925     -2.651529
  H      -6.405752      0.256805     -3.059757
  H      -4.922623     -0.012336     -2.738676
33
Coordinates from ORCA-job pb_P1_cplx E -1183.166112340709
  Pb     -5.712573      0.074024     -0.013556
  C       3.609525     -0.286654      0.515871
  O       2.283668      0.050258      0.107805
  C       1.302670     -0.698016      0.618026
  O       1.519530     -1.618273      1.386190
  C      -0.031774     -0.294724      0.158535
  C      -1.131381     -1.013306      0.628570
  C      -2.399532     -0.661373      0.219192
  O      -3.533943     -1.315491      0.620043
  C      -2.619655      0.408321     -0.658352
  O      -3.815175      0.777450     -1.060782
  C      -1.492488      1.113007     -1.117787
  O      -1.705060      2.157327     -1.967724
  C      -0.216688      0.774544     -0.721979
  H       3.713340     -0.193422      1.597470
  H       4.261758      0.424281      0.014417
  H       3.857616     -1.303735      0.210099
  H      -0.993763     -1.844363      1.310372
  H      -3.345800     -1.926816      1.342866
  H      -2.666692      2.218277     -2.086529
  H       0.623572      1.345382     -1.094838
  O      -6.614763     -2.989287     -1.846254
  H      -6.338623     -2.127747     -2.202329
  H      -7.344422     -2.775878     -1.256267
  O      -6.304121      2.303003     -0.986625
  H      -5.459117      2.655673     -1.296548
  H      -6.563077      2.882828     -0.258978
  O      -4.757433      1.597338      1.790739
  H      -4.733569      1.086236      2.609484
  H      -3.829857      1.748861      1.567657
  O      -5.817433     -0.382111     -2.648350
  H      -6.410630      0.254265     -3.064712
  H      -4.926289     -0.015195     -2.745802
33
Coordinates from ORCA-job pb_P1_cplx E -1183.166132907482
  Pb     -5.714425      0.077567     -0.017294
  C       3.606021     -0.288510      0.519569
  O       2.280874      0.048328      0.109515
  C       1.299255     -0.702053      0.615233
  O       1.515274     -1.624945      1.380518
  C      -0.034703     -0.297303      0.155091
  C      -1.134697     -1.016100      0.623463
  C      -2.402667     -0.662145      0.214645
  O      -3.537601     -1.315802      0.614211
  C      -2.620934      0.409991     -0.660342
  O      -3.816295      0.782041     -1.061490
  C      -1.493180      1.114408     -1.118658
  O      -1.705286      2.160608     -1.966074
  C      -0.217659      0.773924     -0.723318
  H       3.706156     -0.201852      1.602058
  H       4.258516      0.426817      0.024740
  H       3.857161     -1.303129      0.208102
  H      -0.998058     -1.848389      1.303911
  H      -3.350597     -1.928147      1.336487
  H      -2.666841      2.222173     -2.085241
  H       0.622808      1.344855     -1.095455
  O      -6.593186     -2.993886     -1.836330
  H      -6.326652     -2.132161     -2.198299
  H      -7.313887     -2.782113     -1.234763
  O      -6.304477      2.310170     -0.981231
  H      -5.459935      2.662469     -1.292712
  H      -6.562118      2.889192     -0.252602
  O      -4.758863      1.600080      1.788778
  H      -4.725775      1.085258      2.604810
  H      -3.834227      1.759116      1.559028
  O      -5.821097     -0.381125     -2.647989
  H      -6.415473      0.252056     -3.067255
  H      -4.929613     -0.016709     -2.751180
33
Coordinates from ORCA-job pb_P1_cplx E -1183.166148880107
  Pb     -5.715911      0.080358     -0.022241
  C       3.601631     -0.288558      0.525262
  O       2.277329      0.048848      0.113290
  C       1.294997     -0.704509      0.613093
  O       1.510327     -1.630548      1.374941
  C      -0.038332     -0.299024      0.151864
  C      -1.138617     -1.019737      0.616524
  C      -2.405929     -0.664530      0.206561
  O      -3.541411     -1.319232      0.602742
  C      -2.622330      0.410261     -0.665668
  O      -3.817581      0.783284     -1.067428
  C      -1.494315      1.116280     -1.120060
  O      -1.705679      2.165195     -1.964405
  C      -0.219239      0.774775     -0.723706
  H       3.698536     -0.207446      1.608451
  H       4.254569      0.430587      0.036496
  H       3.855314     -1.300796      0.208228
  H      -1.002740     -1.853605      1.295098
  H      -3.356426     -1.930340      1.326594
  H      -2.667076      2.225668     -2.085646
  H       0.621765      1.346581     -1.093111
  O      -6.576575     -2.999317     -1.822564
  H      -6.318280     -2.139012     -2.191708
  H      -7.289250     -2.786446     -1.211707
  O      -6.299567      2.317941     -0.973249
  H      -5.453798      2.666871     -1.285328
  H      -6.554383      2.896239     -0.243174
  O      -4.757653      1.601709      1.784782
  H      -4.716302      1.085150      2.599188
  H      -3.835757      1.768434      1.549571
  O      -5.824927     -0.382398     -2.649787
  H      -6.420927      0.250162     -3.067808
  H      -4.933646     -0.018161     -2.755170
33
Coordinates from ORCA-job pb_P1_cplx E -1183.166173839315
  Pb     -5.717413      0.082366     -0.027524
  C       3.597410     -0.289181      0.530010
  O       2.273821      0.050508      0.117620
  C       1.290627     -0.705112      0.612512
  O       1.505286     -1.633956      1.371350
  C      -0.041956     -0.298994      0.150684
  C      -1.142796     -1.022303      0.610492
  C      -2.408991     -0.666492      0.198226
  O      -3.545093     -1.323203      0.589786
  C      -2.624251      0.410407     -0.671848
  O      -3.819121      0.782306     -1.076154
  C      -1.495980      1.119138     -1.120365
  O      -1.706035      2.171086     -1.961939
  C      -0.221545      0.777464     -0.721927
  H       3.693510     -0.210543      1.613420
  H       4.251234      0.431080      0.043940
  H       3.850910     -1.300359      0.209622
  H      -1.007611     -1.858004      1.286886
  H      -3.362541     -1.931842      1.316321
  H      -2.667267      2.229712     -2.085803
  H       0.620459      1.350520     -1.087012
  O      -6.562919     -3.005975     -1.808996
  H      -6.312111     -2.147285     -2.185229
  H      -7.267846     -2.791317     -1.189677
  O      -6.292391      2.324798     -0.966155
  H      -5.444810      2.669360     -1.278408
  H      -6.543715      2.902402     -0.234298
  O      -4.754542      1.601882      1.779994
  H      -4.705952      1.084000      2.593131
  H      -3.834955      1.775569      1.541058
  O      -5.829315     -0.384412     -2.652926
  H      -6.427163      0.248886     -3.067584
  H      -4.939119     -0.017821     -2.759281
33
Coordinates from ORCA-job pb_P1_cplx E -1183.166203901867
  Pb     -5.720494      0.085587     -0.034179
  C       3.591545     -0.292099      0.534424
  O       2.268723      0.051386      0.122432
  C       1.284424     -0.706442      0.612056
  O       1.497843     -1.638722      1.367156
  C      -0.047134     -0.298779      0.149858
  C      -1.149048     -1.025085      0.603075
  C      -2.413840     -0.668329      0.188284
  O      -3.550797     -1.327724      0.573666
  C      -2.627978      0.411243     -0.678903
  O      -3.821913      0.782041     -1.086439
  C      -1.499069      1.123438     -1.119736
  O      -1.707037      2.179285     -1.957594
  C      -0.225632      0.781317     -0.718641
  H       3.687797     -0.215989      1.617976
  H       4.246759      0.428243      0.050244
  H       3.843221     -1.302757      0.211103
  H      -1.014905     -1.863605      1.276180
  H      -3.371728     -1.932615      1.304182
  H      -2.668019      2.236435     -2.084448
  H       0.617686      1.356283     -1.077697
  O      -6.536314     -3.014156     -1.790942
  H      -6.298476     -2.156582     -2.177640
  H      -7.227409     -2.798213     -1.156569
  O      -6.283696      2.334333     -0.959199
  H      -5.434241      2.674070     -1.271633
  H      -6.530572      2.910515     -0.224635
  O      -4.752142      1.601829      1.774561
  H      -4.692270      1.080602      2.584826
  H      -3.835957      1.785354      1.530224
  O      -5.836109     -0.386175     -2.656523
  H      -6.437380      0.245684     -3.068749
  H      -4.948020     -0.015688     -2.766792
33
Coordinates from ORCA-job pb_P1_cplx E -1183.166220481662
  Pb     -5.724194      0.088899     -0.039700
  C       3.586212     -0.296846      0.536299
  O       2.263928      0.050277      0.125313
  C       1.278605     -0.708316      0.611897
  O       1.490555     -1.643003      1.364398
  C      -0.052070     -0.298596      0.149560
  C      -1.155070     -1.026686      0.597666
  C      -2.418837     -0.669026      0.181234
  O      -3.556535     -1.330408      0.561685
  C      -2.632094      0.412746     -0.683511
  O      -3.824943      0.783201     -1.093352
  C      -1.502333      1.127313     -1.118615
  O      -1.708474      2.186113     -1.953435
  C      -0.229830      0.784436     -0.715599
  H       3.683393     -0.222033      1.619864
  H       4.242844      0.422296      0.052275
  H       3.835103     -1.307897      0.212072
  H      -1.022045     -1.867672      1.267934
  H      -3.380253     -1.932616      1.295096
  H      -2.669218      2.243088     -2.082327
  H       0.614506      1.360885     -1.069973
  O      -6.504420     -3.020266     -1.775228
  H      -6.280910     -2.163385     -2.172315
  H      -7.180215     -2.804185     -1.124658
  O      -6.278527      2.343187     -0.954862
  H      -5.428109      2.680380     -1.267333
  H      -6.522335      2.917608     -0.217836
  O      -4.752027      1.601423      1.771211
  H      -4.680553      1.075675      2.577666
  H      -3.839356      1.794589      1.521335
  O      -5.841998     -0.386070     -2.659147
  H      -6.446922      0.242028     -3.071959
  H      -4.956061     -0.012456     -2.775729
33
Coordinates from ORCA-job pb_P1_cplx E -1183.166243696874
  Pb     -5.728139      0.092191     -0.044337
  C       3.581195     -0.302710      0.536670
  O       2.259358      0.047780      0.126842
  C       1.272990     -0.710376      0.612081
  O       1.483228     -1.646564      1.363058
  C      -0.056864     -0.298345      0.149475
  C      -1.160902     -1.027401      0.593529
  C      -2.423922     -0.668891      0.175995
  O      -3.562276     -1.331688      0.552548
  C      -2.636368      0.414717     -0.686700
  O      -3.828100      0.785301     -1.098251
  C      -1.505599      1.130923     -1.117429
  O      -1.710070      2.191943     -1.949745
  C      -0.233972      0.787111     -0.712936
  H       3.679710     -0.227713      1.620130
  H       4.239352      0.414033      0.051264
  H       3.826605     -1.314983      0.213559
  H      -1.029068     -1.870518      1.261408
  H      -3.388170     -1.932217      1.287867
  H      -2.670523      2.249616     -2.080328
  H       0.611163      1.364733     -1.063632
  O      -6.469634     -3.024984     -1.760900
  H      -6.261220     -2.168915     -2.168476
  H      -7.129373     -2.809091     -1.094103
  O      -6.275898      2.351722     -0.951930
  H      -5.425021      2.688010     -1.264095
  H      -6.517573      2.924136     -0.212584
  O      -4.752872      1.600279      1.769435
  H      -4.669899      1.069504      2.571567
  H      -3.843734      1.802510      1.513854
  O      -5.847159     -0.384844     -2.661599
  H      -6.455996      0.237947     -3.076659
  H      -4.963429     -0.008532     -2.785652
33
Coordinates from ORCA-job pb_P1_cplx E -1183.166278586772
  Pb     -5.733724      0.097388     -0.049283
  C       3.574343     -0.311445      0.536074
  O       2.253074      0.042907      0.127561
  C       1.265252     -0.713546      0.612472
  O       1.473132     -1.650684      1.362716
  C      -0.063570     -0.298440      0.149327
  C      -1.168890     -1.027842      0.589422
  C      -2.431117     -0.668037      0.170809
  O      -3.570353     -1.331739      0.543473
  C      -2.642208      0.417611     -0.689665
  O      -3.832612      0.789005     -1.102763
  C      -1.510002      1.134859     -1.116260
  O      -1.712430      2.198006     -1.945999
  C      -0.239421      0.789454     -0.710387
  H       3.674680     -0.234780      1.619303
  H       4.234491      0.401405      0.047804
  H       3.815094     -1.325808      0.215941
  H      -1.038807     -1.873145      1.254948
  H      -3.398464     -1.931170      1.280234
  H      -2.672463      2.257206     -2.078497
  H       0.606624      1.367900     -1.057672
  O      -6.418924     -3.030503     -1.745673
  H      -6.232281     -2.174752     -2.164952
  H      -7.055054     -2.816012     -1.055988
  O      -6.275042      2.363515     -0.948048
  H      -5.424104      2.699853     -1.259993
  H      -6.514355      2.933092     -0.205639
  O      -4.754174      1.598602      1.768460
  H      -4.655329      1.060725      2.564071
  H      -3.850288      1.813619      1.504811
  O      -5.853841     -0.381993     -2.663997
  H      -6.468287      0.232027     -3.083803
  H      -4.973131     -0.002596     -2.798881
33
Coordinates from ORCA-job pb_P1_cplx E -1183.166324888696
  Pb     -5.742858      0.106633     -0.055450
  C       3.563487     -0.326565      0.533717
  O       2.243161      0.033280      0.126874
  C       1.252887     -0.719378      0.612603
  O       1.457172     -1.657061      1.362909
  C      -0.074399     -0.299407      0.148829
  C      -1.181731     -1.027953      0.584832
  C      -2.442850     -0.665481      0.165177
  O      -3.583557     -1.329118      0.533642
  C      -2.651385      0.422776     -0.692579
  O      -3.840005      0.796320     -1.107198
  C      -1.516856      1.139935     -1.114914
  O      -1.716119      2.205532     -1.941685
  C      -0.247693      0.791363     -0.707859
  H       3.666471     -0.246401      1.616519
  H       4.226599      0.380088      0.040681
  H       3.797367     -1.344190      0.218781
  H      -1.054518     -1.875788      1.247771
  H      -3.414413     -1.928010      1.271500
  H      -2.675534      2.267717     -2.076484
  H       0.599726      1.369874     -1.051869
  O      -6.333958     -3.038103     -1.727185
  H      -6.183248     -2.182248     -2.161151
  H      -6.930812     -2.826576     -1.002397
  O      -6.277482      2.382059     -0.941257
  H      -5.427152      2.720111     -1.252983
  H      -6.513992      2.946908     -0.194158
  O      -4.757198      1.596772      1.768346
  H      -4.633472      1.048653      2.553407
  H      -3.862316      1.832528      1.492076
  O      -5.863176     -0.377305     -2.666699
  H      -6.486877      0.220895     -3.095528
  H      -4.987454      0.006823     -2.818340
33
Coordinates from ORCA-job pb_P1_cplx E -1183.166338034371
  Pb     -5.756252      0.122508     -0.059633
  C       3.547883     -0.347822      0.529403
  O       2.228833      0.018250      0.124095
  C       1.235247     -0.728059      0.612798
  O       1.435228     -1.664827      1.365262
  C      -0.090133     -0.302392      0.148308
  C      -1.200160     -1.027997      0.581884
  C      -2.459890     -0.661270      0.161536
  O      -3.602831     -1.322223      0.527583
  C      -2.664470      0.429038     -0.694432
  O      -3.851216      0.806471     -1.109743
  C      -1.526931      1.143604     -1.114404
  O      -1.721990      2.210938     -1.939374
  C      -0.259375      0.790335     -0.706716
  H       3.654621     -0.260198      1.611348
  H       4.214569      0.349782      0.028537
  H       3.773078     -1.370049      0.223105
  H      -1.076749     -1.877480      1.243477
  H      -3.436461     -1.921065      1.266133
  H      -2.680697      2.277071     -2.076439
  H       0.589866      1.367156     -1.049175
  O      -6.210932     -3.047369     -1.718875
  H      -6.112839     -2.187573     -2.160596
  H      -6.745516     -2.844186     -0.944396
  O      -6.284203      2.408684     -0.929025
  H      -5.435882      2.750248     -1.242980
  H      -6.515750      2.967184     -0.175100
  O      -4.758543      1.596764      1.769521
  H      -4.599941      1.036425      2.539402
  H      -3.877727      1.862489      1.475967
  O      -5.877934     -0.371384     -2.666718
  H      -6.515112      0.202072     -3.109566
  H      -5.009972      0.019562     -2.841259
33
Coordinates from ORCA-job pb_P1_cplx E -1183.166352993107
  Pb     -5.754989      0.127895     -0.051538
  C       3.550504     -0.347533      0.524551
  O       2.230927      0.015240      0.118199
  C       1.237556     -0.725373      0.615768
  O       1.437955     -1.655478      1.376307
  C      -0.088336     -0.302052      0.150033
  C      -1.198130     -1.023037      0.591466
  C      -2.458644     -0.657205      0.172031
  O      -3.601587     -1.313518      0.545636
  C      -2.663246      0.428424     -0.690031
  O      -3.850762      0.806586     -1.103711
  C      -1.525690      1.137725     -1.118714
  O      -1.721017      2.199575     -1.950286
  C      -0.257573      0.784888     -0.712171
  H       3.659576     -0.247757      1.605245
  H       4.216771      0.343624      0.014320
  H       3.773963     -1.373517      0.229776
  H      -1.074380     -1.867967      1.258810
  H      -3.432584     -1.914734      1.281633
  H      -2.679774      2.267378     -2.085671
  H       0.591247      1.358229     -1.061411
  O      -6.220549     -3.051433     -1.754760
  H      -6.117519     -2.180743     -2.173586
  H      -6.756448     -2.868857     -0.975912
  O      -6.287519      2.410487     -0.929567
  H      -5.440823      2.755299     -1.245263
  H      -6.518669      2.969358     -0.176193
  O      -4.758115      1.595901      1.779569
  H      -4.609086      1.034553      2.551358
  H      -3.873534      1.855994      1.491465
  O      -5.877261     -0.367313     -2.664815
  H      -6.515069      0.204987     -3.107898
  H      -5.009374      0.025058     -2.834714
33
Coordinates from ORCA-job pb_P1_cplx E -1183.166377266229
  Pb     -5.754199      0.133421     -0.048568
  C       3.549012     -0.344612      0.530955
  O       2.230072      0.016146      0.121049
  C       1.236644     -0.727903      0.613749
  O       1.438373     -1.659801      1.372326
  C      -0.089235     -0.306285      0.148343
  C      -1.199429     -1.025478      0.592742
  C      -2.459377     -0.658011      0.173405
  O      -3.602909     -1.311136      0.550432
  C      -2.662662      0.426339     -0.690871
  O      -3.850736      0.806036     -1.103822
  C      -1.525333      1.132588     -1.121904
  O      -1.720305      2.194081     -1.955452
  C      -0.256892      0.779025     -0.716084
  H       3.653413     -0.250661      1.612508
  H       4.214516      0.353572      0.028962
  H       3.778826     -1.366518      0.227353
  H      -1.075325     -1.868356      1.262459
  H      -3.434010     -1.911578      1.287012
  H      -2.679675      2.260286     -2.088717
  H       0.592506      1.349879     -1.067648
  O      -6.219633     -3.055506     -1.781366
  H      -6.120263     -2.174512     -2.177870
  H      -6.742155     -2.891763     -0.989119
  O      -6.289959      2.411654     -0.921210
  H      -5.446443      2.755531     -1.245133
  H      -6.515356      2.971803     -0.167480
  O      -4.747277      1.604127      1.776515
  H      -4.591848      1.045196      2.547642
  H      -3.866026      1.870011      1.483963
  O      -5.887697     -0.365410     -2.656484
  H      -6.528186      0.204281     -3.098964
  H      -5.020612      0.028236     -2.828798
33
Coordinates from ORCA-job pb_P1_cplx E -1183.166397796199
  Pb     -5.758855      0.143963     -0.045503
  C       3.544298     -0.357161      0.524746
  O       2.226084      0.004625      0.113672
  C       1.230858     -0.733176      0.612179
  O       1.431278     -1.661709      1.375415
  C      -0.094533     -0.309406      0.147757
  C      -1.206446     -1.020775      0.600389
  C      -2.466058     -0.650163      0.182539
  O      -3.610800     -1.296655      0.566959
  C      -2.666838      0.430906     -0.686663
  O      -3.854565      0.814489     -1.098194
  C      -1.527766      1.128489     -1.126028
  O      -1.720677      2.185915     -1.965612
  C      -0.259370      0.771471     -0.722611
  H       3.648747     -0.259967      1.605969
  H       4.210903      0.338895      0.021136
  H       3.772969     -1.379887      0.223129
  H      -1.083902     -1.860092      1.274822
  H      -3.441047     -1.898351      1.302254
  H      -2.680378      2.256009     -2.094702
  H       0.590931      1.336276     -1.081535
  O      -6.162943     -3.057706     -1.805970
  H      -6.083863     -2.167140     -2.185872
  H      -6.658378     -2.920286     -0.992057
  O      -6.303555      2.421061     -0.915964
  H      -5.463577      2.771571     -1.241189
  H      -6.529592      2.977829     -0.160145
  O      -4.753344      1.607836      1.785123
  H      -4.590719      1.046532      2.553479
  H      -3.875964      1.883464      1.489664
  O      -5.889437     -0.359290     -2.654280
  H      -6.538868      0.194646     -3.102642
  H      -5.026773      0.042469     -2.830339
33
Coordinates from ORCA-job pb_P1_cplx E -1183.166416056074
  Pb     -5.775662      0.168066     -0.038855
  C       3.528318     -0.389252      0.510102
  O       2.211612     -0.020790      0.100445
  C       1.212468     -0.746554      0.608729
  O       1.409182     -1.671283      1.377752
  C      -0.111742     -0.315545      0.147818
  C      -1.227163     -1.012771      0.613498
  C      -2.485889     -0.634986      0.198942
  O      -3.633161     -1.269259      0.594975
  C      -2.681404      0.441022     -0.677559
  O      -3.867927      0.831857     -1.086833
  C      -1.539011      1.123762     -1.130051
  O      -1.727737      2.174960     -1.978771
  C      -0.271073      0.759024     -0.731205
  H       3.635546     -0.289471      1.590757
  H       4.197982      0.302064      0.003847
  H       3.751157     -1.413504      0.209356
  H      -1.108052     -1.847174      1.294557
  H      -3.462042     -1.872616      1.328488
  H      -2.687919      2.252122     -2.101028
  H       0.581415      1.312852     -1.101641
  O      -6.009937     -3.064024     -1.846017
  H      -5.988494     -2.159436     -2.200253
  H      -6.424122     -2.964545     -0.982958
  O      -6.330451      2.445316     -0.904443
  H      -5.495621      2.805302     -1.233531
  H      -6.556240      2.995951     -0.143211
  O      -4.762344      1.619164      1.796969
  H      -4.570060      1.049914      2.552571
  H      -3.899015      1.922005      1.487519
  O      -5.896472     -0.347616     -2.644299
  H      -6.563185      0.170291     -3.109712
  H      -5.045136      0.069837     -2.836031
33
Coordinates from ORCA-job pb_P1_cplx E -1183.166447288727
  Pb     -5.777942      0.164600     -0.044930
  C       3.525109     -0.387803      0.515982
  O       2.208951     -0.018520      0.105021
  C       1.209721     -0.749549      0.605505
  O       1.405435     -1.679666      1.368111
  C      -0.113925     -0.317170      0.143945
  C      -1.229635     -1.018229      0.603019
  C      -2.488096     -0.639281      0.188877
  O      -3.635448     -1.276697      0.580421
  C      -2.683410      0.440831     -0.682560
  O      -3.869294      0.833343     -1.091195
  C      -1.540603      1.127315     -1.129221
  O      -1.728856      2.182727     -1.972647
  C      -0.273180      0.762031     -0.729537
  H       3.628003     -0.299570      1.598047
  H       4.194973      0.310360      0.019532
  H       3.751530     -1.408391      0.205488
  H      -1.110867     -1.856358      1.279582
  H      -3.465345     -1.879103      1.314999
  H      -2.688949      2.259461     -2.096101
  H       0.579544      1.319186     -1.094501
  O      -5.997809     -3.060151     -1.808428
  H      -5.984259     -2.168398     -2.192093
  H      -6.408834     -2.938031     -0.947238
  O      -6.327333      2.446230     -0.906440
  H      -5.489541      2.803165     -1.230093
  H      -6.554851      2.995294     -0.144760
  O      -4.760365      1.616848      1.791476
  H      -4.560608      1.045766      2.543943
  H      -3.899401      1.920059      1.475540
  O      -5.896869     -0.346657     -2.646733
  H      -6.564139      0.170367     -3.111925
  H      -5.045887      0.070675     -2.841162
33
Coordinates from ORCA-job pb_P1_cplx E -1183.166481686598
  Pb     -5.787404      0.164634     -0.051804
  C       3.509263     -0.391295      0.528924
  O       2.194654     -0.019622      0.114679
  C       1.194825     -0.761314      0.597632
  O       1.387641     -1.702804      1.346581
  C      -0.127329     -0.325186      0.134228
  C      -1.244169     -1.032725      0.580166
  C      -2.501585     -0.649871      0.166669
  O      -3.649994     -1.291795      0.548773
  C      -2.695109      0.438563     -0.694315
  O      -3.879521      0.836321     -1.100547
  C      -1.550924      1.131089     -1.129748
  O      -1.737219      2.195134     -1.962168
  C      -0.284970      0.763123     -0.728407
  H       3.602786     -0.327000      1.613489
  H       4.179990      0.320433      0.053422
  H       3.742894     -1.403977      0.198304
  H      -1.126760     -1.878136      1.247916
  H      -3.482924     -1.888613      1.288674
  H      -2.696921      2.271645     -2.088817
  H       0.569295      1.325356     -1.082038
  O      -5.911946     -3.046540     -1.742621
  H      -5.940749     -2.178337     -2.175712
  H      -6.275643     -2.879536     -0.867629
  O      -6.323462      2.457054     -0.902383
  H      -5.479053      2.805495     -1.218273
  H      -6.549085      3.001448     -0.136667
  O      -4.750846      1.619754      1.780282
  H      -4.517433      1.045331      2.520358
  H      -3.904130      1.937241      1.440778
  O      -5.908280     -0.346386     -2.644844
  H      -6.584147      0.156398     -3.113737
  H      -5.063927      0.078802     -2.851239
33
Coordinates from ORCA-job pb_P1_cplx E -1183.166522390859
  Pb     -5.789253      0.173264     -0.046447
  C       3.508400     -0.396638      0.524454
  O       2.193593     -0.023047      0.112649
  C       1.193285     -0.761672      0.599400
  O       1.386297     -1.701515      1.350550
  C      -0.128997     -0.324904      0.137587
  C      -1.246342     -1.028699      0.588471
  C      -2.503633     -0.644900      0.175564
  O      -3.652561     -1.282399      0.562190
  C      -2.696267      0.440486     -0.689491
  O      -3.880917      0.838351     -1.096020
  C      -1.551968      1.129515     -1.129191
  O      -1.737761      2.191198     -1.964957
  C      -0.285966      0.760579     -0.728650
  H       3.605285     -0.328278      1.608465
  H       4.179429      0.311819      0.044455
  H       3.738646     -1.410933      0.196505
  H      -1.128999     -1.871578      1.259381
  H      -3.485228     -1.880050      1.301317
  H      -2.697613      2.268446     -2.090306
  H       0.568945      1.319527     -1.085828
  O      -5.899366     -3.061129     -1.779722
  H      -5.933577     -2.180417     -2.186217
  H      -6.245816     -2.915956     -0.893022
  O      -6.327310      2.461629     -0.897696
  H      -5.486104      2.811623     -1.220946
  H      -6.549459      3.007217     -0.131857
  O      -4.748100      1.628289      1.781214
  H      -4.511998      1.053915      2.520167
  H      -3.903080      1.949398      1.441560
  O      -5.913481     -0.345270     -2.638320
  H      -6.591148      0.154659     -3.108319
  H      -5.071121      0.082156     -2.847015
33
Coordinates from ORCA-job pb_P1_cplx E -1183.166605260634
  Pb     -5.805459      0.193377     -0.041804
  C       3.489887     -0.426089      0.516446
  O       2.176553     -0.044227      0.107499
  C       1.172825     -0.777482      0.595327
  O       1.362197     -1.719439      1.344925
  C      -0.147820     -0.332996      0.136788
  C      -1.268634     -1.027513      0.593584
  C      -2.524414     -0.635944      0.183587
  O      -3.676025     -1.263590      0.576480
  C      -2.712146      0.447926     -0.684211
  O      -3.895300      0.852993     -1.088458
  C      -1.564663      1.127471     -1.129869
  O      -1.746078      2.188089     -1.968178
  C      -0.299973      0.751049     -0.732108
  H       3.587969     -0.363423      1.600652
  H       4.163834      0.281698      0.039505
  H       3.715083     -1.439620      0.182672
  H      -1.154410     -1.869023      1.266736
  H      -3.510230     -1.860234      1.316720
  H      -2.705967      2.271203     -2.089822
  H       0.557983      1.302522     -1.093569
  O      -5.741402     -3.065692     -1.801831
  H      -5.841379     -2.183738     -2.193856
  H      -5.993125     -2.928224     -0.881300
  O      -6.351195      2.483165     -0.881454
  H      -5.514511      2.839751     -1.209612
  H      -6.570625      3.021823     -0.109250
  O      -4.747221      1.647130      1.779049
  H      -4.472703      1.071776      2.503716
  H      -3.922574      1.996828      1.419405
  O      -5.927962     -0.342195     -2.627025
  H      -6.623699      0.121903     -3.107440
  H      -5.100997      0.105412     -2.853381
33
Coordinates from ORCA-job pb_P1_cplx E -1183.166725557689
  Pb     -5.822913      0.210582     -0.035553
  C       3.472851     -0.461779      0.498928
  O       2.160630     -0.070944      0.094867
  C       1.153386     -0.793647      0.591102
  O       1.338980     -1.733948      1.343776
  C      -0.165848     -0.340558      0.137197
  C      -1.289919     -1.022953      0.604014
  C      -2.544655     -0.623740      0.198157
  O      -3.698453     -1.240478      0.600082
  C      -2.728243      0.456785     -0.674386
  O      -3.909880      0.869102     -1.075566
  C      -1.577522      1.124002     -1.130386
  O      -1.754956      2.180543     -1.974610
  C      -0.313797      0.739669     -0.737194
  H       3.575867     -0.398221      1.582610
  H       4.149963      0.240255      0.018002
  H       3.689079     -1.477509      0.165852
  H      -1.178657     -1.861719      1.281126
  H      -3.533060     -1.836155      1.341144
  H      -2.714814      2.271220     -2.090846
  H       0.546523      1.281792     -1.107140
  O      -5.570807     -3.053128     -1.822615
  H      -5.734337     -2.174568     -2.200766
  H      -5.735592     -2.916553     -0.881858
  O      -6.382456      2.499526     -0.870620
  H      -5.550129      2.867829     -1.197693
  H      -6.605758      3.029565     -0.092983
  O      -4.763531      1.663857      1.784702
  H      -4.458609      1.090700      2.498737
  H      -3.956527      2.038764      1.410916
  O      -5.928674     -0.342318     -2.618828
  H      -6.641591      0.080058     -3.112280
  H      -5.118732      0.128652     -2.857960
33
Coordinates from ORCA-job pb_P1_cplx E -1183.166793194169
  Pb     -5.832120      0.216987     -0.035390
  C       3.464566     -0.493612      0.473265
  O       2.152548     -0.094409      0.076805
  C       1.142919     -0.805810      0.584405
  O       1.325726     -1.742669      1.341820
  C      -0.175186     -0.344244      0.135690
  C      -1.301547     -1.017383      0.609921
  C      -2.555830     -0.612174      0.208447
  O      -3.710879     -1.223159      0.615317
  C      -2.737316      0.468055     -0.666081
  O      -3.917336      0.886707     -1.064265
  C      -1.583356      1.125637     -1.129787
  O      -1.757648      2.179633     -1.977425
  C      -0.320689      0.734074     -0.741560
  H       3.576367     -0.422946      1.555707
  H       4.144118      0.197925     -0.019058
  H       3.668353     -1.514611      0.148384
  H      -1.193131     -1.855685      1.288250
  H      -3.547672     -1.814472      1.360370
  H      -2.716904      2.278572     -2.089770
  H       0.541051      1.269278     -1.118478
  O      -5.448710     -3.026133     -1.811248
  H      -5.645557     -2.153249     -2.193629
  H      -5.577497     -2.894917     -0.866410
  O      -6.400476      2.503584     -0.875622
  H      -5.568437      2.885146     -1.185286
  H      -6.637376      3.023488     -0.097243
  O      -4.817037      1.673129      1.801905
  H      -4.512997      1.105825      2.522343
  H      -4.010819      2.055421      1.431574
  O      -5.902724     -0.351980     -2.628565
  H      -6.629468      0.041158     -3.126217
  H      -5.107118      0.147517     -2.858244
33
Coordinates from ORCA-job pb_P1_cplx E -1183.167029810855
  Pb     -5.852490      0.227246     -0.028675
  C       3.445961     -0.533809      0.446815
  O       2.134390     -0.124977      0.058940
  C       1.122546     -0.827294      0.575058
  O       1.302865     -1.762661      1.334778
  C      -0.194402     -0.356243      0.133187
  C      -1.323094     -1.018826      0.616524
  C      -2.577003     -0.605127      0.222550
  O      -3.733353     -1.206830      0.637950
  C      -2.756594      0.474653     -0.654373
  O      -3.934639      0.902258     -1.046485
  C      -1.599276      1.120477     -1.127811
  O      -1.771119      2.172657     -1.978596
  C      -0.337536      0.720218     -0.746931
  H       3.566935     -0.459064      1.528045
  H       4.127813      0.148831     -0.054555
  H       3.637699     -1.558560      0.126340
  H      -1.217805     -1.856546      1.296215
  H      -3.570945     -1.794484      1.386076
  H      -2.730163      2.278775     -2.085189
  H       0.525954      1.247050     -1.131659
  O      -5.251558     -2.977938     -1.806014
  H      -5.515201     -2.121109     -2.185180
  H      -5.284133     -2.829224     -0.856073
  O      -6.428572      2.509655     -0.878250
  H      -5.596526      2.903059     -1.172606
  H      -6.677690      3.018717     -0.097973
  O      -4.863382      1.693300      1.809722
  H      -4.537400      1.131919      2.525245
  H      -4.071911      2.098060      1.430081
  O      -5.885503     -0.356987     -2.622089
  H      -6.629687     -0.013195     -3.130475
  H      -5.116360      0.180684     -2.854666
33
Coordinates from ORCA-job pb_P1_cplx E -1183.167296225697
  Pb     -5.870821      0.236350     -0.025457
  C       3.426375     -0.561837      0.434397
  O       2.115557     -0.147479      0.050022
  C       1.101965     -0.848180      0.565265
  O       1.280289     -1.786891      1.321370
  C      -0.213712     -0.370319      0.127655
  C      -1.344709     -1.026422      0.614593
  C      -2.597743     -0.603994      0.227149
  O      -3.755753     -1.197302      0.648877
  C      -2.774299      0.477504     -0.648586
  O      -3.950437      0.914517     -1.034426
  C      -1.614530      1.115612     -1.126761
  O      -1.783576      2.169922     -1.975852
  C      -0.353959      0.707624     -0.751136
  H       3.548716     -0.492756      1.515854
  H       4.109563      0.121276     -0.064489
  H       3.614726     -1.585616      0.108824
  H      -1.242347     -1.865243      1.293389
  H      -3.594257     -1.783750      1.398186
  H      -2.742471      2.281868     -2.077856
  H       0.511240      1.229652     -1.138531
  O      -5.080034     -2.936683     -1.788201
  H      -5.409884     -2.104669     -2.171414
  H      -5.020148     -2.742935     -0.845964
  O      -6.449231      2.520215     -0.871902
  H      -5.617042      2.919888     -1.158143
  H      -6.704071      3.020387     -0.087188
  O      -4.882666      1.709979      1.805114
  H      -4.527403      1.152912      2.510025
  H      -4.110483      2.136985      1.411190
  O      -5.883254     -0.367328     -2.612660
  H      -6.640937     -0.066328     -3.128691
  H      -5.136844      0.197727     -2.854732
33
Coordinates from ORCA-job pb_P1_cplx E -1183.167839204833
  Pb     -5.888983      0.244566     -0.024230
  C       3.405963     -0.600510      0.411987
  O       2.096225     -0.176012      0.035214
  C       1.080107     -0.871284      0.552969
  O       1.255416     -1.813746      1.305134
  C      -0.234017     -0.382810      0.122808
  C      -1.367702     -1.029984      0.615417
  C      -2.619367     -0.597124      0.235269
  O      -3.779432     -1.180902      0.664044
  C      -2.792160      0.486031     -0.638931
  O      -3.966052      0.932038     -1.019234
  C      -1.629664      1.114844     -1.123080
  O      -1.795113      2.170694     -1.971072
  C      -0.370523      0.697030     -0.754257
  H       3.533043     -0.537645      1.493283
  H       4.091404      0.080685     -0.086393
  H       3.586305     -1.623919      0.080718
  H      -1.268690     -1.870344      1.292812
  H      -3.617161     -1.771132      1.410287
  H      -2.753634      2.290560     -2.067378
  H       0.496912      1.212103     -1.145871
  O      -4.887460     -2.887153     -1.756868
  H      -5.282909     -2.088683     -2.147785
  H      -4.747486     -2.635092     -0.835678
  O      -6.480487      2.526650     -0.869509
  H      -5.649576      2.937938     -1.142921
  H      -6.748822      3.016949     -0.082581
  O      -4.918964      1.728294      1.806894
  H      -4.537868      1.177664      2.503127
  H      -4.164573      2.176507      1.402202
  O      -5.864192     -0.383261     -2.606688
  H      -6.630834     -0.127207     -3.133737
  H      -5.141887      0.208940     -2.856025
33
Coordinates from ORCA-job pb_P1_cplx E -1183.168368965899
  Pb     -5.909737      0.251071     -0.017469
  C       3.387848     -0.633770      0.391092
  O       2.078465     -0.204213      0.019012
  C       1.061223     -0.892409      0.544053
  O       1.235057     -1.833284      1.298475
  C      -0.252212     -0.397331      0.119324
  C      -1.387023     -1.035221      0.620886
  C      -2.638248     -0.594764      0.248125
  O      -3.799050     -1.168810      0.688127
  C      -2.809922      0.487077     -0.627565
  O      -3.982344      0.941404     -1.000852
  C      -1.645927      1.105630     -1.121934
  O      -1.810112      2.159148     -1.973050
  C      -0.387241      0.680636     -0.760375
  H       3.520411     -0.567254      1.471533
  H       4.074298      0.041876     -0.113377
  H       3.561415     -1.659526      0.063459
  H      -1.289815     -1.874217      1.300267
  H      -3.634020     -1.761463      1.432130
  H      -2.768437      2.285233     -2.063334
  H       0.480613      1.188834     -1.159880
  O      -4.706373     -2.817254     -1.738115
  H      -5.164428     -2.053674     -2.130637
  H      -4.492180     -2.502198     -0.849328
  O      -6.511847      2.529313     -0.872919
  H      -5.681946      2.950912     -1.133476
  H      -6.792295      3.011297     -0.084534
  O      -4.950081      1.741215      1.811170
  H      -4.547803      1.195564      2.499066
  H      -4.210600      2.204886      1.396180
  O      -5.847994     -0.393656     -2.596988
  H      -6.620895     -0.185326     -3.136217
  H      -5.150983      0.224959     -2.852924
33
Coordinates from ORCA-job pb_P1_cplx E -1183.168591506233
  Pb     -5.935471      0.263903     -0.003340
  C       3.375382     -0.622713      0.409014
  O       2.065725     -0.203447      0.026865
  C       1.050618     -0.902021      0.542088
  O       1.226891     -1.845512      1.292874
  C      -0.265098     -0.413486      0.115698
  C      -1.396922     -1.056884      0.615379
  C      -2.649229     -0.616107      0.247895
  O      -3.808586     -1.192838      0.700099
  C      -2.825025      0.467558     -0.624350
  O      -3.998390      0.928303     -0.991077
  C      -1.663639      1.090252     -1.118224
  O      -1.830088      2.147039     -1.965594
  C      -0.402639      0.667259     -0.759973
  H       3.501173     -0.551574      1.489900
  H       4.059909      0.058527     -0.090982
  H       3.561117     -1.646122      0.081261
  H      -1.296866     -1.895973      1.293681
  H      -3.631785     -1.802456      1.428841
  H      -2.789892      2.265844     -2.057148
  H       0.463070      1.179863     -1.157344
  O      -4.639981     -2.787229     -1.727564
  H      -5.142884     -2.058838     -2.117641
  H      -4.345033     -2.408774     -0.886169
  O      -6.516717      2.541259     -0.883916
  H      -5.680561      2.942471     -1.148969
  H      -6.791370      3.036595     -0.097192
  O      -4.894454      1.751145      1.787013
  H      -4.465878      1.183149      2.438087
  H      -4.162314      2.206452      1.352920
  O      -5.893976     -0.372648     -2.567298
  H      -6.664999     -0.167430     -3.110132
  H      -5.204268      0.239116     -2.844779
33
Coordinates from ORCA-job pb_P1_cplx E -1183.168744145125
  Pb     -5.928438      0.266589     -0.009660
  C       3.381277     -0.603287      0.423638
  O       2.071357     -0.184158      0.041919
  C       1.057286     -0.892245      0.545855
  O       1.234566     -1.842161      1.288334
  C      -0.258994     -0.406681      0.117913
  C      -1.390281     -1.061090      0.604978
  C      -2.642376     -0.624183      0.232372
  O      -3.802001     -1.215722      0.666791
  C      -2.818499      0.464500     -0.633569
  O      -3.992635      0.921089     -1.005962
  C      -1.658152      1.099356     -1.113528
  O      -1.824531      2.163440     -1.951326
  C      -0.397240      0.680597     -0.749475
  H       3.505263     -0.538967      1.505135
  H       4.065020      0.083129     -0.070433
  H       3.570072     -1.623747      0.088678
  H      -1.288972     -1.905949      1.275849
  H      -3.632029     -1.817183      1.403359
  H      -2.784412      2.275667     -2.050240
  H       0.469031      1.201124     -1.135354
  O      -4.719662     -2.831632     -1.721819
  H      -5.206860     -2.093691     -2.116639
  H      -4.423173     -2.465714     -0.874503
  O      -6.481753      2.550226     -0.876975
  H      -5.638404      2.934906     -1.150523
  H      -6.742389      3.049241     -0.091661
  O      -4.876963      1.755101      1.774184
  H      -4.454677      1.184015      2.428479
  H      -4.141242      2.203471      1.339058
  O      -5.921005     -0.379335     -2.571843
  H      -6.697900     -0.150470     -3.095229
  H      -5.223466      0.228448     -2.847877
33
Coordinates from ORCA-job pb_P1_cplx E -1183.168849330249
  Pb     -5.921028      0.263780     -0.009202
  C       3.384836     -0.600293      0.422577
  O       2.073967     -0.178774      0.045975
  C       1.060821     -0.884276      0.554577
  O       1.238260     -1.830913      1.300807
  C      -0.255862     -0.400412      0.124745
  C      -1.386804     -1.060243      0.605982
  C      -2.638742     -0.629886      0.225029
  O      -3.797623     -1.236079      0.638806
  C      -2.816824      0.459053     -0.638359
  O      -3.990647      0.907267     -1.018393
  C      -1.656768      1.100696     -1.111318
  O      -1.824363      2.165169     -1.947162
  C      -0.395957      0.687097     -0.742153
  H       3.516722     -0.524227      1.502455
  H       4.068636      0.076158     -0.084827
  H       3.565187     -1.626197      0.099819
  H      -1.284579     -1.908073      1.273305
  H      -3.630885     -1.828103      1.382693
  H      -2.783576      2.274422     -2.051582
  H       0.470821      1.211094     -1.123109
  O      -4.740168     -2.823860     -1.718638
  H      -5.230211     -2.086240     -2.117455
  H      -4.430619     -2.455022     -0.878754
  O      -6.457334      2.548962     -0.879893
  H      -5.607663      2.923425     -1.151463
  H      -6.710226      3.051023     -0.096661
  O      -4.887447      1.759902      1.784723
  H      -4.473134      1.190086      2.445720
  H      -4.148580      2.205483      1.348816
  O      -5.938402     -0.391329     -2.576655
  H      -6.722411     -0.155665     -3.087713
  H      -5.241577      0.220659     -2.852769
33
Coordinates from ORCA-job pb_P1_cplx E -1183.168896766789
  Pb     -5.912233      0.263920     -0.003866
  C       3.392788     -0.572600      0.441518
  O       2.080452     -0.159118      0.060686
  C       1.070192     -0.868499      0.568931
  O       1.250431     -1.811013      1.319479
  C      -0.248263     -0.393755      0.133034
  C      -1.376502     -1.064195      0.605932
  C      -2.629474     -0.644515      0.216104
  O      -3.785845     -1.266008      0.617431
  C      -2.811962      0.445707     -0.644012
  O      -3.986579      0.884075     -1.032600
  C      -1.654344      1.098698     -1.107493
  O      -1.825826      2.163730     -1.941275
  C      -0.392212      0.694526     -0.732317
  H       3.524480     -0.483890      1.520484
  H       4.074540      0.100486     -0.073116
  H       3.576664     -1.601259      0.129941
  H      -1.271455     -1.913335      1.271236
  H      -3.613118     -1.866870      1.352835
  H      -2.785216      2.265586     -2.051332
  H       0.472568      1.226561     -1.106856
  O      -4.837955     -2.844938     -1.734874
  H      -5.312653     -2.095174     -2.125369
  H      -4.509571     -2.497175     -0.897979
  O      -6.424643      2.549387     -0.892457
  H      -5.570104      2.899960     -1.174709
  H      -6.660585      3.070687     -0.114212
  O      -4.844585      1.758238      1.783547
  H      -4.439335      1.169363      2.432105
  H      -4.096034      2.184419      1.343909
  O      -5.992414     -0.374990     -2.568233
  H      -6.773088     -0.101802     -3.066755
  H      -5.280300      0.208478     -2.859789
33
Coordinates from ORCA-job pb_P1_cplx E -1183.169001289672
  Pb     -5.914220      0.263311     -0.003503
  C       3.392048     -0.573867      0.443229
  O       2.079338     -0.160417      0.063765
  C       1.069433     -0.870017      0.572517
  O       1.250798     -1.812553      1.322924
  C      -0.249160     -0.396352      0.136782
  C      -1.376809     -1.069908      0.606450
  C      -2.630203     -0.652117      0.215390
  O      -3.785846     -1.275787      0.614909
  C      -2.812803      0.439705     -0.642849
  O      -3.987770      0.875998     -1.033986
  C      -1.655827      1.096397     -1.103093
  O      -1.829108      2.162227     -1.935080
  C      -0.393686      0.693526     -0.726716
  H       3.523979     -0.487371      1.522351
  H       4.073053      0.100479     -0.070661
  H       3.576137     -1.602051      0.130159
  H      -1.271353     -1.919662      1.270910
  H      -3.615691     -1.872996      1.354360
  H      -2.788814      2.262752     -2.044639
  H       0.470127      1.228084     -1.099821
  O      -4.815829     -2.829323     -1.730393
  H      -5.307589     -2.090204     -2.117385
  H      -4.453661     -2.460461     -0.914923
  O      -6.422356      2.546923     -0.895099
  H      -5.566331      2.892539     -1.181423
  H      -6.654644      3.069991     -0.117003
  O      -4.838448      1.762529      1.773874
  H      -4.426005      1.172404      2.417744
  H      -4.097774      2.192021      1.326472
  O      -6.016825     -0.369638     -2.562891
  H      -6.804824     -0.108127     -3.053245
  H      -5.311519      0.216650     -2.869203
33
Coordinates from ORCA-job pb_P1_cplx E -1183.169061545715
  Pb     -5.912455      0.260508     -0.003937
  C       3.394485     -0.572353      0.445997
  O       2.081464     -0.160286      0.066163
  C       1.071704     -0.869391      0.576267
  O       1.253729     -1.811038      1.327722
  C      -0.246651     -0.396997      0.139416
  C      -1.374070     -1.072599      0.606500
  C      -2.627991     -0.656891      0.214454
  O      -3.783074     -1.278458      0.616097
  C      -2.810273      0.434634     -0.644337
  O      -3.985512      0.867482     -1.038280
  C      -1.653671      1.094613     -1.101430
  O      -1.828399      2.160576     -1.932895
  C      -0.391718      0.693862     -0.722832
  H       3.524366     -0.490280      1.525716
  H       4.074752      0.104912     -0.064835
  H       3.580362     -1.599484      0.130304
  H      -1.268475     -1.921680      1.271776
  H      -3.613901     -1.875641      1.355957
  H      -2.788247      2.260754     -2.041808
  H       0.470958      1.231170     -1.094514
  O      -4.818196     -2.820882     -1.732574
  H      -5.316575     -2.081790     -2.112956
  H      -4.434368     -2.446751     -0.927993
  O      -6.418701      2.541193     -0.898789
  H      -5.562791      2.883555     -1.190189
  H      -6.647273      3.068928     -0.123462
  O      -4.835099      1.762995      1.772836
  H      -4.420524      1.170917      2.413127
  H      -4.098026      2.192968      1.320791
  O      -6.040227     -0.361261     -2.557290
  H      -6.832702     -0.103097     -3.042810
  H      -5.335078      0.214495     -2.882265
33
Coordinates from ORCA-job pb_P1_cplx E -1183.169107780410
  Pb     -5.907865      0.255373     -0.008429
  C       3.398424     -0.565888      0.452405
  O       2.085322     -0.156264      0.070374
  C       1.075720     -0.865772      0.580513
  O       1.258132     -1.807120      1.332233
  C      -0.242502     -0.395026      0.141583
  C      -1.369195     -1.075124      0.603376
  C      -2.623732     -0.662986      0.208927
  O      -3.778261     -1.283942      0.609476
  C      -2.805514      0.428827     -0.649792
  O      -3.981514      0.855265     -1.048506
  C      -1.649919      1.095606     -1.099709
  O      -1.826181      2.163267     -1.928673
  C      -0.388025      0.698372     -0.717358
  H       3.524043     -0.491150      1.533152
  H       4.078034      0.116680     -0.052032
  H       3.588372     -1.590746      0.131437
  H      -1.263391     -1.924693      1.267963
  H      -3.611256     -1.880677      1.350135
  H      -2.786049      2.261155     -2.039507
  H       0.473155      1.240951     -1.084698
  O      -4.842041     -2.822459     -1.725071
  H      -5.339245     -2.080947     -2.100867
  H      -4.440536     -2.445221     -0.930196
  O      -6.402704      2.535593     -0.903565
  H      -5.544072      2.869388     -1.199059
  H      -6.626410      3.071157     -0.131348
  O      -4.829671      1.759020      1.772093
  H      -4.415975      1.162604      2.408272
  H      -4.093225      2.185697      1.316455
  O      -6.072453     -0.348360     -2.555947
  H      -6.869885     -0.087767     -3.029839
  H      -5.363762      0.209871     -2.903874
33
Coordinates from ORCA-job pb_P1_cplx E -1183.169140528205
  Pb     -5.904825      0.253173     -0.011589
  C       3.401117     -0.560141      0.458082
  O       2.088193     -0.152507      0.073332
  C       1.078611     -0.861640      0.584063
  O       1.260940     -1.801719      1.337322
  C      -0.239666     -0.392391      0.143247
  C      -1.365918     -1.073895      0.603909
  C      -2.620373     -0.663970      0.207330
  O      -3.775052     -1.284055      0.607147
  C      -2.802446      0.425755     -0.654198
  O      -3.979113      0.847663     -1.056123
  C      -1.647468      1.095048     -1.101329
  O      -1.823350      2.162504     -1.931023
  C      -0.385433      0.700410     -0.716253
  H       3.524264     -0.486531      1.539168
  H       4.080713      0.124151     -0.044051
  H       3.593511     -1.584261      0.136118
  H      -1.259674     -1.922821      1.269245
  H      -3.609792     -1.880928      1.348019
  H      -2.782923      2.258164     -2.045603
  H       0.475416      1.244774     -1.081722
  O      -4.863656     -2.828897     -1.730139
  H      -5.358595     -2.080972     -2.100018
  H      -4.451408     -2.457290     -0.938038
  O      -6.389949      2.533432     -0.903331
  H      -5.530478      2.861990     -1.201469
  H      -6.608776      3.074890     -0.133647
  O      -4.825116      1.754233      1.774648
  H      -4.414254      1.154021      2.409584
  H      -4.085685      2.176423      1.319424
  O      -6.093338     -0.340385     -2.554930
  H      -6.895334     -0.074174     -3.020339
  H      -5.382324      0.204631     -2.916911
33
Coordinates from ORCA-job pb_P1_cplx E -1183.169148233799
  Pb     -5.904457      0.252234     -0.014871
  C       3.402028     -0.554528      0.462409
  O       2.089279     -0.148177      0.075694
  C       1.079876     -0.858993      0.584498
  O       1.262306     -1.799471      1.337214
  C      -0.238611     -0.390950      0.142764
  C      -1.364531     -1.074095      0.602181
  C      -2.618675     -0.665358      0.204104
  O      -3.773563     -1.287314      0.600766
  C      -2.801391      0.423961     -0.658037
  O      -3.978500      0.843221     -1.061431
  C      -1.647022      1.094959     -1.103148
  O      -1.822311      2.163117     -1.932494
  C      -0.384760      0.701628     -0.716808
  H       3.523604     -0.481421      1.543679
  H       4.081675      0.131169     -0.037852
  H       3.596548     -1.577849      0.139253
  H      -1.257940     -1.923507      1.266811
  H      -3.609146     -1.883633      1.342209
  H      -2.781700      2.256373     -2.050468
  H       0.476259      1.246982     -1.080400
  O      -4.878949     -2.834947     -1.723827
  H      -5.370561     -2.087589     -2.096060
  H      -4.467212     -2.461221     -0.932329
  O      -6.377263      2.536022     -0.901695
  H      -5.514827      2.858629     -1.197651
  H      -6.594276      3.080139     -0.133827
  O      -4.824418      1.749494      1.776676
  H      -4.414775      1.147170      2.410368
  H      -4.082478      2.168929      1.322256
  O      -6.102043     -0.336692     -2.557763
  H      -6.905108     -0.065300     -3.017444
  H      -5.389237      0.201701     -2.924851
33
Coordinates from ORCA-job pb_P1_cplx E -1183.169156011030
  Pb     -5.906089      0.251676     -0.016438
  C       3.401818     -0.553076      0.461871
  O       2.088976     -0.147130      0.075155
  C       1.079820     -0.857578      0.584968
  O       1.262578     -1.797174      1.338696
  C      -0.239027     -0.390361      0.143239
  C      -1.364738     -1.072495      0.605071
  C      -2.618598     -0.664222      0.206275
  O      -3.773859     -1.286513      0.602163
  C      -2.802084      0.423386     -0.658040
  O      -3.979595      0.841195     -1.061690
  C      -1.648074      1.092968     -1.105348
  O      -1.822668      2.159614     -1.936982
  C      -0.385550      0.699955     -0.718976
  H       3.524413     -0.477062      1.542818
  H       4.081436      0.131291     -0.040340
  H       3.596094     -1.577005      0.140600
  H      -1.258173     -1.920948      1.270899
  H      -3.610913     -1.880376      1.345873
  H      -2.781868      2.251983     -2.056907
  H       0.475879      1.243710     -1.084007
  O      -4.876853     -2.835520     -1.724154
  H      -5.369068     -2.088867     -2.098490
  H      -4.467844     -2.461265     -0.932284
  O      -6.371480      2.538366     -0.901088
  H      -5.506927      2.858844     -1.193041
  H      -6.589703      3.083253     -0.133166
  O      -4.827573      1.743806      1.778468
  H      -4.420701      1.141695      2.414286
  H      -4.082602      2.161982      1.327826
  O      -6.101441     -0.333938     -2.561764
  H      -6.907283     -0.063086     -3.017051
  H      -5.390483      0.207576     -2.928517
33
Coordinates from ORCA-job pb_P1_cplx E -1183.169156726333
  Pb     -5.908018      0.251292     -0.017617
  C       3.401096     -0.551309      0.462227
  O       2.088181     -0.145731      0.075521
  C       1.079254     -0.856838      0.584908
  O       1.262506     -1.796326      1.338753
  C      -0.239836     -0.390867      0.142949
  C      -1.365563     -1.071213      0.608103
  C      -2.618979     -0.663017      0.208633
  O      -3.774698     -1.284838      0.605069
  C      -2.803062      0.422590     -0.658340
  O      -3.980829      0.839714     -1.061550
  C      -1.649229      1.089475     -1.109272
  O      -1.822883      2.153674     -1.944391
  C      -0.386587      0.696444     -0.722862
  H       3.524191     -0.473508      1.542983
  H       4.080608      0.132613     -0.040835
  H       3.595633     -1.575365      0.141635
  H      -1.258840     -1.917885      1.276120
  H      -3.612936     -1.875834      1.351305
  H      -2.781904      2.245622     -2.065801
  H       0.475600      1.237372     -1.090286
  O      -4.870909     -2.833791     -1.726920
  H      -5.365170     -2.089602     -2.103037
  H      -4.464329     -2.457484     -0.934723
  O      -6.366467      2.541683     -0.897799
  H      -5.499882      2.860066     -1.185641
  H      -6.586001      3.087168     -0.131032
  O      -4.831410      1.737657      1.780691
  H      -4.425800      1.137061      2.419154
  H      -4.084946      2.157586      1.333954
  O      -6.099543     -0.332151     -2.564451
  H      -6.908742     -0.063262     -3.015362
  H      -5.392689      0.213687     -2.932160
33
Coordinates from ORCA-job pb_P1_cplx E -1183.169171426982
  Pb     -5.908925      0.250012     -0.018240
  C       3.400146     -0.547813      0.465224
  O       2.087190     -0.142771      0.078279
  C       1.078498     -0.856305      0.584749
  O       1.262252     -1.797168      1.336904
  C      -0.240623     -0.391888      0.141845
  C      -1.366431     -1.071288      0.608815
  C      -2.619501     -0.663167      0.208592
  O      -3.775564     -1.284404      0.605872
  C      -2.803681      0.421363     -0.659801
  O      -3.981603      0.838030     -1.062199
  C      -1.649960      1.086505     -1.113327
  O      -1.823046      2.148951     -1.950630
  C      -0.387465      0.693450     -0.726353
  H       3.522138     -0.471855      1.546238
  H       4.079410      0.137914     -0.035733
  H       3.596159     -1.570927      0.142568
  H      -1.259562     -1.916369      1.278750
  H      -3.615092     -1.870795      1.356026
  H      -2.781943      2.241378     -2.072514
  H       0.475349      1.232326     -1.095288
  O      -4.866352     -2.831593     -1.729132
  H      -5.364589     -2.091259     -2.107745
  H      -4.461160     -2.451199     -0.938069
  O      -6.357696      2.545084     -0.894346
  H      -5.488160      2.858477     -1.179124
  H      -6.577219      3.093193     -0.129405
  O      -4.831665      1.730781      1.780444
  H      -4.426565      1.133097      2.421904
  H      -4.085043      2.153379      1.336715
  O      -6.102354     -0.332574     -2.565427
  H      -6.916999     -0.066440     -3.008105
  H      -5.402127      0.218559     -2.937560
33
Coordinates from ORCA-job pb_P1_cplx E -1183.169213321249
  Pb     -5.908127      0.248013     -0.018232
  C       3.399692     -0.542811      0.470512
  O       2.086652     -0.138591      0.083111
  C       1.078301     -0.855621      0.585242
  O       1.262551     -1.798330      1.335105
  C      -0.240741     -0.392837      0.140929
  C      -1.366543     -1.071776      0.608838
  C      -2.619482     -0.664155      0.207627
  O      -3.775643     -1.284698      0.606193
  C      -2.803612      0.419376     -0.662001
  O      -3.981629      0.835479     -1.063872
  C      -1.649848      1.083673     -1.117177
  O      -1.822986      2.144353     -1.956330
  C      -0.387614      0.691154     -0.729034
  H       3.519697     -0.470617      1.552013
  H       4.078540      0.145929     -0.026838
  H       3.597913     -1.564443      0.144518
  H      -1.259349     -1.915261      1.280681
  H      -3.616227     -1.865733      1.360735
  H      -2.781827      2.237863     -2.077647
  H       0.475479      1.228785     -1.099115
  O      -4.865084     -2.829244     -1.736504
  H      -5.367773     -2.092180     -2.114590
  H      -4.457452     -2.446064     -0.948072
  O      -6.343884      2.548446     -0.891579
  H      -5.470658      2.852981     -1.174911
  H      -6.561363      3.102626     -0.130640
  O      -4.829843      1.723971      1.780306
  H      -4.425822      1.130263      2.426044
  H      -4.083468      2.150049      1.339499
  O      -6.112869     -0.335228     -2.564568
  H      -6.936103     -0.072482     -2.993039
  H      -5.423059      0.221794     -2.947280
33
Coordinates from ORCA-job pb_P1_cplx E -1183.169211291551
  Pb     -5.905705      0.245924     -0.017409
  C       3.399151     -0.537592      0.477674
  O       2.086228     -0.133749      0.089453
  C       1.078011     -0.855265      0.585264
  O       1.262230     -1.801231      1.331077
  C      -0.240679     -0.393014      0.139461
  C      -1.366504     -1.073262      0.605016
  C      -2.619501     -0.665756      0.203376
  O      -3.775615     -1.286275      0.602125
  C      -2.803062      0.418425     -0.665178
  O      -3.980960      0.834417     -1.066731
  C      -1.649048      1.084238     -1.118641
  O      -1.822827      2.145485     -1.956506
  C      -0.387239      0.692297     -0.729141
  H       3.515949     -0.472304      1.559974
  H       4.077776      0.155599     -0.013664
  H       3.600056     -1.556953      0.146168
  H      -1.259104     -1.916957      1.276555
  H      -3.616721     -1.862612      1.360391
  H      -2.781707      2.240411     -2.076309
  H       0.475715      1.231119     -1.097800
  O      -4.867017     -2.829079     -1.742163
  H      -5.374313     -2.094962     -2.119606
  H      -4.456446     -2.443146     -0.956556
  O      -6.325301      2.550677     -0.891849
  H      -5.447638      2.842025     -1.175438
  H      -6.539135      3.114211     -0.136757
  O      -4.824833      1.719246      1.778918
  H      -4.421849      1.130122      2.429102
  H      -4.078791      2.147461      1.339833
  O      -6.128737     -0.342332     -2.561112
  H      -6.962499     -0.082864     -2.970923
  H      -5.452067      0.220380     -2.958677
33
Coordinates from ORCA-job pb_P1_cplx E -1183.169232666941
  Pb     -5.903287      0.244295     -0.015399
  C       3.399117     -0.534086      0.482165
  O       2.086119     -0.130402      0.093844
  C       1.078187     -0.854980      0.585618
  O       1.262373     -1.803173      1.328507
  C      -0.240344     -0.392185      0.139461
  C      -1.365846     -1.074559      0.601676
  C      -2.619382     -0.667478      0.200420
  O      -3.775029     -1.288816      0.598660
  C      -2.802747      0.417832     -0.666311
  O      -3.980506      0.833678     -1.068525
  C      -1.648579      1.086721     -1.116269
  O      -1.823973      2.149542     -1.951500
  C      -0.386875      0.695820     -0.726098
  H       3.514120     -0.474066      1.564976
  H       4.077408      0.162115     -0.005252
  H       3.601560     -1.551952      0.146909
  H      -1.258037     -1.919670      1.271427
  H      -3.616036     -1.862929      1.358621
  H      -2.783066      2.245118     -2.069189
  H       0.475086      1.237764     -1.092520
  O      -4.869476     -2.827775     -1.750448
  H      -5.378467     -2.093395     -2.124178
  H      -4.456066     -2.443934     -0.965502
  O      -6.305557      2.549842     -0.899556
  H      -5.422998      2.825374     -1.183420
  H      -6.515879      3.125181     -0.152538
  O      -4.820833      1.717291      1.779172
  H      -4.421250      1.132222      2.434867
  H      -4.073242      2.145033      1.342064
  O      -6.144907     -0.349296     -2.556370
  H      -6.990091     -0.095293     -2.945607
  H      -5.483679      0.220842     -2.969779
33
Coordinates from ORCA-job pb_P1_cplx E -1183.169249323549
  Pb     -5.903099      0.244862     -0.012783
  C       3.398648     -0.535742      0.479708
  O       2.085446     -0.131217      0.092753
  C       1.077609     -0.855674      0.584952
  O       1.261690     -1.804742      1.326553
  C      -0.240952     -0.390669      0.140549
  C      -1.366224     -1.075157      0.599214
  C      -2.620425     -0.667598      0.199799
  O      -3.775607     -1.290137      0.596802
  C      -2.803667      0.419955     -0.663797
  O      -3.981098      0.836776     -1.066544
  C      -1.649387      1.092006     -1.109530
  O      -1.826319      2.157954     -1.940600
  C      -0.387525      0.701147     -0.720390
  H       3.514327     -0.477910      1.562572
  H       4.076728      0.160932     -0.007242
  H       3.600367     -1.553355      0.143164
  H      -1.258353     -1.923112      1.265424
  H      -3.615421     -1.867412      1.354126
  H      -2.785732      2.253239     -2.056360
  H       0.473201      1.246829     -1.084159
  O      -4.865795     -2.825892     -1.753183
  H      -5.373069     -2.088983     -2.124442
  H      -4.455792     -2.446675     -0.964189
  O      -6.294390      2.546403     -0.913229
  H      -5.408032      2.810325     -1.195754
  H      -6.504702      3.130873     -0.173477
  O      -4.821148      1.719741      1.781078
  H      -4.425442      1.136616      2.440673
  H      -4.070642      2.143796      1.345359
  O      -6.148582     -0.355560     -2.552524
  H      -7.000670     -0.108137     -2.930844
  H      -5.498125      0.221204     -2.973755
33
Coordinates from ORCA-job pb_P1_cplx E -1183.169279552976
  Pb     -5.904529      0.247117     -0.010628
  C       3.398546     -0.540560      0.472451
  O       2.084958     -0.135363      0.087383
  C       1.077264     -0.856442      0.584966
  O       1.261504     -1.804013      1.328201
  C      -0.241719     -0.389018      0.143579
  C      -1.366662     -1.075463      0.599568
  C      -2.621422     -0.667415      0.202112
  O      -3.776222     -1.291843      0.596506
  C      -2.805052      0.422608     -0.658217
  O      -3.982149      0.840821     -1.061759
  C      -1.650969      1.097386     -1.099999
  O      -1.828953      2.166854     -1.926924
  C      -0.388580      0.706231     -0.712909
  H       3.517049     -0.480040      1.554854
  H       4.076385      0.153859     -0.018066
  H       3.598144     -1.559328      0.138133
  H      -1.258877     -1.926625      1.261762
  H      -3.614906     -1.877022      1.347490
  H      -2.788649      2.259842     -2.042844
  H       0.470969      1.255306     -1.074318
  O      -4.857310     -2.821897     -1.753839
  H      -5.360714     -2.080673     -2.122183
  H      -4.454510     -2.449762     -0.957624
  O      -6.291541      2.540570     -0.930829
  H      -5.402349      2.796897     -1.211096
  H      -6.504555      3.131841     -0.197483
  O      -4.823534      1.724810      1.784305
  H      -4.431226      1.141472      2.446031
  H      -4.069684      2.143845      1.349442
  O      -6.145924     -0.356766     -2.549869
  H      -7.003000     -0.119492     -2.923612
  H      -5.503966      0.226947     -2.974663
33
Coordinates from ORCA-job pb_P1_cplx E -1183.169299914922
  Pb     -5.906458      0.249357     -0.008145
  C       3.398683     -0.545226      0.465587
  O       2.084775     -0.139472      0.082287
  C       1.077170     -0.856593      0.585919
  O       1.261829     -1.802252      1.331390
  C      -0.242302     -0.387747      0.147246
  C      -1.367031     -1.075610      0.601896
  C      -2.621882     -0.666926      0.205734
  O      -3.776582     -1.293303      0.597083
  C      -2.806091      0.425497     -0.651623
  O      -3.983013      0.845025     -1.055087
  C      -1.652424      1.101748     -1.091139
  O      -1.830441      2.174327     -1.914613
  C      -0.389538      0.709671     -0.706170
  H       3.520146     -0.480578      1.547413
  H       4.076362      0.146403     -0.029148
  H       3.596108     -1.565350      0.134178
  H      -1.259349     -1.929141      1.261064
  H      -3.615023     -1.886530      1.341662
  H      -2.790196      2.264527     -2.032740
  H       0.469600      1.260372     -1.066013
  O      -4.843553     -2.814416     -1.757579
  H      -5.345932     -2.070530     -2.123031
  H      -4.449923     -2.448939     -0.953543
  O      -6.287423      2.533193     -0.950667
  H      -5.394826      2.781403     -1.227488
  H      -6.503485      3.132780     -0.225089
  O      -4.825966      1.727456      1.789033
  H      -4.436829      1.144016      2.452766
  H      -4.068542      2.141887      1.355821
  O      -6.147103     -0.354816     -2.546665
  H      -7.012894     -0.134596     -2.911165
  H      -5.520050      0.239046     -2.979249
33
Coordinates from ORCA-job pb_P1_cplx E -1183.169309186533
  Pb     -5.908559      0.251909     -0.006069
  C       3.398778     -0.549162      0.460781
  O       2.084756     -0.142547      0.078952
  C       1.077093     -0.857480      0.585689
  O       1.262083     -1.802317      1.332222
  C      -0.242610     -0.387934      0.149003
  C      -1.367468     -1.075531      0.604554
  C      -2.622112     -0.665703      0.209409
  O      -3.776966     -1.292443      0.599955
  C      -2.806610      0.428184     -0.646304
  O      -3.983572      0.849079     -1.048028
  C      -1.653209      1.103748     -1.086612
  O      -1.830564      2.177515     -1.908825
  C      -0.390132      0.709953     -0.703542
  H       3.522062     -0.482726      1.542280
  H       4.076439      0.141152     -0.035893
  H       3.594878     -1.569781      0.130173
  H      -1.259921     -1.929676      1.262924
  H      -3.614969     -1.890807      1.340317
  H      -2.790233      2.266643     -2.028629
  H       0.469474      1.259612     -1.063881
  O      -4.828835     -2.807237     -1.762402
  H      -5.332444     -2.063188     -2.126273
  H      -4.443886     -2.444806     -0.952671
  O      -6.286920      2.529482     -0.962232
  H      -5.392304      2.774413     -1.235920
  H      -6.505905      3.133796     -0.241679
  O      -4.830678      1.728957      1.793458
  H      -4.442858      1.145920      2.458470
  H      -4.072126      2.142546      1.361560
  O      -6.146259     -0.354386     -2.544597
  H      -7.017867     -0.149658     -2.904092
  H      -5.530737      0.247156     -2.982170
33
Coordinates from ORCA-job pb_P1_cplx E -1183.169319470862
  Pb     -5.910350      0.254708     -0.004091
  C       3.399171     -0.553790      0.457214
  O       2.085164     -0.145600      0.077223
  C       1.077296     -0.859731      0.584700
  O       1.262486     -1.805251      1.330541
  C      -0.242473     -0.389303      0.150089
  C      -1.367713     -1.075599      0.607704
  C      -2.621907     -0.663705      0.213854
  O      -3.777232     -1.289582      0.604855
  C      -2.806406      0.431573     -0.640444
  O      -3.983560      0.854120     -1.039061
  C      -1.653061      1.105167     -1.083156
  O      -1.829139      2.179555     -1.904666
  C      -0.390088      0.708584     -0.702222
  H       3.523568     -0.488425      1.538637
  H       4.076950      0.136719     -0.039103
  H       3.594363     -1.573957      0.124736
  H      -1.260386     -1.929718      1.266093
  H      -3.614559     -1.893312      1.340687
  H      -2.788553      2.269284     -2.025691
  H       0.470727      1.255414     -1.064025
  O      -4.809216     -2.797941     -1.768391
  H      -5.317394     -2.056609     -2.131883
  H      -4.434211     -2.435717     -0.953758
  O      -6.290676      2.526059     -0.971614
  H      -5.395194      2.771129     -1.242903
  H      -6.513000      3.134462     -0.255603
  O      -4.835669      1.730852      1.797846
  H      -4.446230      1.148369      2.462405
  H      -4.078469      2.146909      1.366055
  O      -6.147061     -0.354708     -2.541531
  H      -7.024395     -0.169514     -2.897636
  H      -5.544966      0.254243     -2.986932
33
Coordinates from ORCA-job pb_P1_cplx E -1183.169327677615
  Pb     -5.911004      0.257466     -0.002134
  C       3.400469     -0.558530      0.455269
  O       2.086552     -0.148162      0.077452
  C       1.078433     -0.862813      0.583596
  O       1.263535     -1.810248      1.327196
  C      -0.241295     -0.390885      0.151051
  C      -1.366866     -1.075998      0.610192
  C      -2.620771     -0.661858      0.217989
  O      -3.776561     -1.286344      0.610072
  C      -2.805033      0.434684     -0.634933
  O      -3.982414      0.858540     -1.030607
  C      -1.651578      1.106765     -1.079534
  O      -1.826764      2.181652     -1.900209
  C      -0.388829      0.707556     -0.700489
  H       3.525588     -0.496669      1.536808
  H       4.078466      0.133178     -0.039106
  H       3.594838     -1.577649      0.119123
  H      -1.259696     -1.930324      1.268306
  H      -3.612739     -1.895037      1.341552
  H      -2.785947      2.273120     -2.021271
  H       0.473071      1.251972     -1.063388
  O      -4.791148     -2.788471     -1.776041
  H      -5.305019     -2.050402     -2.138275
  H      -4.424153     -2.426255     -0.957753
  O      -6.296283      2.522718     -0.979795
  H      -5.400748      2.769043     -1.250505
  H      -6.521212      3.135376     -0.268164
  O      -4.840362      1.734382      1.801198
  H      -4.447785      1.152203      2.464160
  H      -4.086219      2.154785      1.368475
  O      -6.151894     -0.356246     -2.537240
  H      -7.034653     -0.191520     -2.889741
  H      -5.564164      0.258658     -2.993329
33
Coordinates from ORCA-job pb_P1_cplx E -1183.169341985712
  Pb     -5.910070      0.259762     -0.000627
  C       3.402280     -0.562911      0.455598
  O       2.088621     -0.149922      0.079800
  C       1.080084     -0.866268      0.582573
  O       1.264657     -1.816787      1.322445
  C      -0.239389     -0.392253      0.151685
  C      -1.365304     -1.076686      0.610980
  C      -2.618986     -0.660194      0.220516
  O      -3.775289     -1.283334      0.613346
  C      -2.802653      0.437706     -0.630848
  O      -3.980162      0.862779     -1.024167
  C      -1.648805      1.108987     -1.075995
  O      -1.823283      2.184699     -1.895408
  C      -0.386419      0.707503     -0.698312
  H       3.527557     -0.506053      1.537392
  H       4.080740      0.130500     -0.035731
  H       3.595808     -1.580662      0.114839
  H      -1.258401     -1.931830      1.268054
  H      -3.610390     -1.895705      1.341519
  H      -2.782266      2.278544     -2.015689
  H       0.476341      1.250532     -1.061243
  O      -4.776033     -2.780423     -1.783617
  H      -5.296284     -2.045834     -2.143991
  H      -4.413987     -2.417833     -0.963374
  O      -6.301486      2.519985     -0.985547
  H      -5.406672      2.768178     -1.257667
  H      -6.527746      3.136530     -0.277562
  O      -4.843932      1.739260      1.803119
  H      -4.447033      1.157239      2.463484
  H      -4.093731      2.164686      1.368601
  O      -6.161270     -0.360111     -2.532827
  H      -7.049670     -0.215246     -2.879704
  H      -5.589007      0.259845     -3.001717
33
Coordinates from ORCA-job pb_P1_cplx E -1183.169351580430
  Pb     -5.908872      0.261346      0.000624
  C       3.403777     -0.565408      0.456706
  O       2.090276     -0.150750      0.082206
  C       1.081498     -0.868492      0.582444
  O       1.265767     -1.821242      1.319552
  C      -0.237822     -0.393061      0.152691
  C      -1.363946     -1.077540      0.611384
  C      -2.617457     -0.659541      0.221983
  O      -3.774112     -1.282227      0.614508
  C      -2.800758      0.439610     -0.627877
  O      -3.978292      0.865618     -1.019873
  C      -1.646661      1.110864     -1.072554
  O      -1.820672      2.187632     -1.890562
  C      -0.384484      0.708020     -0.695684
  H       3.529145     -0.511773      1.538654
  H       4.082517      0.129142     -0.032622
  H       3.596828     -1.582238      0.112932
  H      -1.257265     -1.933634      1.267251
  H      -3.608869     -1.897251      1.340370
  H      -2.779530      2.282597     -2.010670
  H       0.478727      1.250717     -1.058046
  O      -4.765401     -2.773585     -1.791223
  H      -5.290700     -2.041263     -2.149043
  H      -4.406372     -2.411615     -0.969412
  O      -6.301932      2.517606     -0.991339
  H      -5.407042      2.764582     -1.264759
  H      -6.528276      3.138733     -0.287285
  O      -4.844933      1.742650      1.804348
  H      -4.445085      1.161117      2.463348
  H      -4.097273      2.171070      1.368457
  O      -6.172201     -0.363212     -2.529219
  H      -7.066839     -0.235661     -2.866871
  H      -5.615921      0.261872     -3.010496
33
Coordinates from ORCA-job pb_P1_cplx E -1183.169365464587
  Pb     -5.907447      0.262105      0.001841
  C       3.404767     -0.565775      0.459056
  O       2.091394     -0.150613      0.084638
  C       1.082472     -0.869216      0.583315
  O       1.266466     -1.822933      1.319222
  C      -0.236723     -0.393355      0.153502
  C      -1.362925     -1.078364      0.611091
  C      -2.616337     -0.659953      0.221783
  O      -3.773136     -1.282949      0.613445
  C      -2.799413      0.439903     -0.627158
  O      -3.976895      0.866302     -1.018960
  C      -1.645167      1.111654     -1.070804
  O      -1.818971      2.189137     -1.887883
  C      -0.383096      0.708550     -0.693874
  H       3.529975     -0.512856      1.541064
  H       4.083717      0.128943     -0.029734
  H       3.597643     -1.582441      0.114712
  H      -1.256357     -1.935110      1.266123
  H      -3.607887     -1.899084      1.338375
  H      -2.777766      2.284314     -2.008243
  H       0.480219      1.251688     -1.055315
  O      -4.761144     -2.769133     -1.797798
  H      -5.289704     -2.037707     -2.152740
  H      -4.402167     -2.408249     -0.975531
  O      -6.300146      2.516247     -0.994446
  H      -5.405047      2.760840     -1.269433
  H      -6.525237      3.140773     -0.293007
  O      -4.842843      1.744459      1.804561
  H      -4.441122      1.163133      2.462604
  H      -4.096586      2.174169      1.367542
  O      -6.182443     -0.365165     -2.526505
  H      -7.081912     -0.248631     -2.855155
  H      -5.638364      0.264002     -3.016365
33
Coordinates from ORCA-job pb_P1_cplx E -1183.169391071901
  Pb     -5.899842      0.261532      0.004893
  C       3.406638     -0.560165      0.473776
  O       2.093922     -0.146696      0.094765
  C       1.084530     -0.867611      0.589130
  O       1.266991     -1.821536      1.324737
  C      -0.233976     -0.392668      0.154451
  C      -1.360131     -1.080968      0.605482
  C      -2.613678     -0.664846      0.213529
  O      -3.770141     -1.290775      0.601328
  C      -2.795865      0.435016     -0.634919
  O      -3.972649      0.861317     -1.031215
  C      -1.640972      1.110453     -1.071973
  O      -1.815264      2.189127     -1.887797
  C      -0.378977      0.710895     -0.691218
  H       3.529550     -0.502539      1.555857
  H       4.086517      0.132122     -0.017052
  H       3.599901     -1.578720      0.135309
  H      -1.253851     -1.939303      1.258545
  H      -3.605372     -1.904340      1.328601
  H      -2.774252      2.282727     -2.008477
  H       0.482881      1.259583     -1.047617
  O      -4.773804     -2.766890     -1.813114
  H      -5.305512     -2.032421     -2.156528
  H      -4.402138     -2.412035     -0.994157
  O      -6.295090      2.517255     -0.987845
  H      -5.402378      2.757130     -1.273080
  H      -6.511156      3.143574     -0.285819
  O      -4.821786      1.748514      1.797846
  H      -4.414151      1.164787      2.450103
  H      -4.078222      2.177464      1.355340
  O      -6.212742     -0.369737     -2.521543
  H      -7.120863     -0.263721     -2.828216
  H      -5.690299      0.268159     -3.023198
33
Coordinates from ORCA-job pb_P1_cplx E -1183.169412191696
  Pb     -5.899685      0.262488      0.004997
  C       3.406783     -0.561949      0.472170
  O       2.093929     -0.147077      0.095228
  C       1.084601     -0.868530      0.589068
  O       1.267455     -1.823399      1.323441
  C      -0.233914     -0.393099      0.155638
  C      -1.360226     -1.080942      0.607416
  C      -2.613671     -0.664497      0.215650
  O      -3.770326     -1.290001      0.603246
  C      -2.795843      0.435321     -0.632986
  O      -3.972792      0.860917     -1.029195
  C      -1.641077      1.110467     -1.070622
  O      -1.815242      2.188987     -1.886616
  C      -0.379179      0.710361     -0.690118
  H       3.530977     -0.505934      1.554190
  H       4.086516      0.130605     -0.018495
  H       3.599033     -1.580185      0.132171
  H      -1.254131     -1.939170      1.260684
  H      -3.606151     -1.902858      1.331227
  H      -2.774203      2.282847     -2.007091
  H       0.482941      1.258255     -1.047202
  O      -4.762444     -2.760824     -1.817244
  H      -5.296833     -2.027938     -2.160506
  H      -4.396346     -2.406764     -0.995420
  O      -6.292755      2.517114     -0.991166
  H      -5.399122      2.756193     -1.274767
  H      -6.510432      3.145280     -0.290797
  O      -4.825510      1.748835      1.799078
  H      -4.417588      1.165885      2.451847
  H      -4.082422      2.180041      1.357935
  O      -6.214155     -0.370760     -2.521815
  H      -7.126442     -0.278485     -2.821711
  H      -5.703924      0.273500     -3.028310
33
Coordinates from ORCA-job pb_P1_cplx E -1183.169418994769
  Pb     -5.899781      0.263659      0.003475
  C       3.405002     -0.565288      0.466474
  O       2.091678     -0.148271      0.093584
  C       1.082593     -0.868498      0.590303
  O       1.266434     -1.822373      1.325759
  C      -0.235913     -0.393029      0.158272
  C      -1.362573     -1.078347      0.613673
  C      -2.616153     -0.663704      0.220681
  O      -3.772751     -1.288057      0.609493
  C      -2.798356      0.432738     -0.632682
  O      -3.975323      0.854759     -1.032542
  C      -1.643818      1.106209     -1.072935
  O      -1.818368      2.181385     -1.893651
  C      -0.381872      0.707266     -0.691465
  H       3.533563     -0.507036      1.547877
  H       4.084287      0.124451     -0.028746
  H       3.593600     -1.585008      0.128879
  H      -1.256994     -1.934357      1.270053
  H      -3.609597     -1.895475      1.342196
  H      -2.777638      2.274699     -2.012334
  H       0.479699      1.253702     -1.052271
  O      -4.740137     -2.751015     -1.820936
  H      -5.274099     -2.017513     -2.164473
  H      -4.387591     -2.402866     -0.990636
  O      -6.292209      2.522701     -0.985849
  H      -5.399170      2.768442     -1.265305
  H      -6.515367      3.144744     -0.281106
  O      -4.833160      1.747289      1.800263
  H      -4.425033      1.161742      2.450433
  H      -4.089164      2.181287      1.362981
  O      -6.200755     -0.369906     -2.529639
  H      -7.116518     -0.298973     -2.826857
  H      -5.706698      0.289325     -3.033042
33
Coordinates from ORCA-job pb_P1_cplx E -1183.169436795927
  Pb     -5.899424      0.264522      0.003959
  C       3.404801     -0.564566      0.470270
  O       2.091701     -0.148176      0.095999
  C       1.082450     -0.868311      0.592404
  O       1.265901     -1.821685      1.328609
  C      -0.235995     -0.393706      0.158882
  C      -1.362676     -1.078069      0.615714
  C      -2.616086     -0.664239      0.221486
  O      -3.772761     -1.288324      0.611401
  C      -2.798178      0.430616     -0.634062
  O      -3.974975      0.851833     -1.035148
  C      -1.643562      1.102927     -1.075582
  O      -1.817681      2.176291     -1.898911
  C      -0.381575      0.704686     -0.693261
  H       3.532323     -0.505690      1.551751
  H       4.084400      0.125339     -0.024327
  H       3.594272     -1.584127      0.132702
  H      -1.256891     -1.932553      1.273946
  H      -3.609128     -1.896443      1.343442
  H      -2.776938      2.268976     -2.018662
  H       0.480093      1.249970     -1.055395
  O      -4.732431     -2.743985     -1.829959
  H      -5.268700     -2.010417     -2.169761
  H      -4.383492     -2.399748     -0.996437
  O      -6.293836      2.524104     -0.981467
  H      -5.402031      2.772038     -1.262390
  H      -6.516737      3.145449     -0.276346
  O      -4.827551      1.746914      1.799758
  H      -4.414708      1.158168      2.444139
  H      -4.086268      2.183086      1.359980
  O      -6.205983     -0.367225     -2.527397
  H      -7.124231     -0.310657     -2.818987
  H      -5.726285      0.297683     -3.036424
33
Coordinates from ORCA-job pb_P1_cplx E -1183.169442842901
  Pb     -5.899804      0.264020      0.002738
  C       3.403813     -0.561015      0.477556
  O       2.091066     -0.147700      0.098760
  C       1.081649     -0.866255      0.596777
  O       1.264370     -1.816434      1.337242
  C      -0.236766     -0.394512      0.159123
  C      -1.363310     -1.077319      0.618477
  C      -2.616570     -0.665923      0.221239
  O      -3.773047     -1.289688      0.613361
  C      -2.798695      0.425009     -0.639225
  O      -3.975210      0.844465     -1.042923
  C      -1.643979      1.095457     -1.083239
  O      -1.817723      2.164845     -1.911818
  C      -0.381874      0.699559     -0.698498
  H       3.528298     -0.499412      1.559210
  H       4.083788      0.129057     -0.016350
  H       3.596104     -1.580669      0.141857
  H      -1.257029     -1.928423      1.280876
  H      -3.608953     -1.896627      1.346270
  H      -2.776905      2.256140     -2.033631
  H       0.479707      1.243333     -1.062939
  O      -4.727993     -2.737275     -1.839969
  H      -5.265849     -2.002867     -2.175502
  H      -4.381136     -2.397652     -1.003846
  O      -6.296814      2.528971     -0.967192
  H      -5.407565      2.782995     -1.250840
  H      -6.518501      3.145029     -0.257368
  O      -4.814928      1.743466      1.796301
  H      -4.394789      1.148519      2.430498
  H      -4.078654      2.182017      1.350769
  O      -6.211191     -0.360523     -2.525538
  H      -7.130497     -0.315384     -2.814229
  H      -5.743195      0.309482     -3.038021
33
Coordinates from ORCA-job pb_P1_cplx E -1183.169467810245
  Pb     -5.900922      0.263912      0.001168
  C       3.402785     -0.561136      0.479451
  O       2.090173     -0.149556      0.098270
  C       1.080507     -0.865027      0.600095
  O       1.262841     -1.811670      1.345202
  C      -0.237762     -0.394885      0.160308
  C      -1.364525     -1.075805      0.621968
  C      -2.617641     -0.665715      0.222867
  O      -3.774079     -1.288557      0.616593
  C      -2.799583      0.422312     -0.641275
  O      -3.975898      0.840673     -1.046468
  C      -1.644600      1.090899     -1.087605
  O      -1.817916      2.157387     -1.919878
  C      -0.382638      0.695984     -0.701400
  H       3.526316     -0.496337      1.561010
  H       4.082918      0.127742     -0.015905
  H       3.595727     -1.581657      0.146731
  H      -1.258375     -1.924504      1.287469
  H      -3.609489     -1.894824      1.349910
  H      -2.776985      2.248568     -2.042434
  H       0.479110      1.238206     -1.067814
  O      -4.716749     -2.729775     -1.848488
  H      -5.256885     -1.995689     -2.181116
  H      -4.375134     -2.393764     -1.008789
  O      -6.298470      2.533152     -0.958291
  H      -5.411073      2.793104     -1.242215
  H      -6.521190      3.144506     -0.244789
  O      -4.809421      1.740791      1.795232
  H      -4.384297      1.141459      2.421681
  H      -4.076995      2.182224      1.346285
  O      -6.212501     -0.358168     -2.525612
  H      -7.133224     -0.327087     -2.811511
  H      -5.756206      0.317921     -3.040726
33
Coordinates from ORCA-job pb_P1_cplx E -1183.169462266171
  Pb     -5.902122      0.263576     -0.001218
  C       3.401702     -0.561756      0.480642
  O       2.089226     -0.152195      0.096677
  C       1.079202     -0.863308      0.603849
  O       1.261109     -1.805388      1.354873
  C      -0.238856     -0.394706      0.162042
  C      -1.365885     -1.074329      0.624927
  C      -2.618790     -0.665429      0.223843
  O      -3.775315     -1.287568      0.618080
  C      -2.800478      0.420235     -0.643116
  O      -3.976604      0.837459     -1.049771
  C      -1.645212      1.087786     -1.090678
  O      -1.818192      2.152072     -1.925597
  C      -0.383547      0.693774     -0.702815
  H       3.524404     -0.492636      1.562010
  H       4.081956      0.125217     -0.017164
  H       3.595019     -1.583641      0.152297
  H      -1.260119     -1.921239      1.292821
  H      -3.610180     -1.893595      1.351444
  H      -2.777128      2.243310     -2.048732
  H       0.478552      1.234994     -1.070008
  O      -4.705667     -2.723158     -1.856702
  H      -5.248956     -1.990393     -2.187166
  H      -4.368257     -2.389618     -1.014433
  O      -6.297346      2.537623     -0.950483
  H      -5.411266      2.802032     -1.234436
  H      -6.520983      3.144699     -0.233431
  O      -4.803745      1.738336      1.794001
  H      -4.373827      1.134494      2.412730
  H      -4.075574      2.182475      1.341041
  O      -6.216102     -0.357953     -2.525089
  H      -7.138664     -0.339001     -2.806617
  H      -5.770536      0.322516     -3.043894
33
Coordinates from ORCA-job pb_P1_cplx E -1183.169469978527
  Pb     -5.904046      0.263524     -0.003197
  C       3.400561     -0.563955      0.479165
  O       2.088156     -0.155784      0.093361
  C       1.077766     -0.862114      0.606433
  O       1.259338     -1.799899      1.362951
  C      -0.240133     -0.394143      0.163831
  C      -1.367374     -1.072864      0.627443
  C      -2.620128     -0.664341      0.225427
  O      -3.776945     -1.285614      0.619847
  C      -2.801538      0.420074     -0.643025
  O      -3.977602      0.836679     -1.050330
  C      -1.646092      1.087169     -1.091182
  O      -1.818864      2.150399     -1.927242
  C      -0.384721      0.693273     -0.702544
  H       3.523370     -0.490195      1.560203
  H       4.080884      0.120468     -0.022005
  H       3.593340     -1.587513      0.155698
  H      -1.262050     -1.918928      1.296526
  H      -3.611144     -1.892619      1.352271
  H      -2.777716      2.242185     -2.050357
  H       0.477853      1.233750     -1.069792
  O      -4.692538     -2.716684     -1.864348
  H      -5.239100     -1.985578     -2.193024
  H      -4.360507     -2.385367     -1.019155
  O      -6.293250      2.540591     -0.948041
  H      -5.407091      2.806578     -1.230243
  H      -6.518697      3.145443     -0.229527
  O      -4.802296      1.736921      1.794863
  H      -4.369448      1.129895      2.408185
  H      -4.076908      2.182960      1.339300
  O      -6.218825     -0.360627     -2.524340
  H      -7.143400     -0.352541     -2.800157
  H      -5.783038      0.323538     -3.047069
33
Coordinates from ORCA-job pb_P1_cplx E -1183.169467282442
  Pb     -5.905177      0.263105     -0.005350
  C       3.399528     -0.564819      0.478454
  O       2.087151     -0.157681      0.091398
  C       1.076564     -0.860637      0.608713
  O       1.257954     -1.795273      1.369166
  C      -0.241292     -0.393238      0.165437
  C      -1.368530     -1.071867      0.629097
  C      -2.621163     -0.664038      0.226025
  O      -3.778314     -1.284923      0.619936
  C      -2.802461      0.419333     -0.643678
  O      -3.978553      0.834682     -1.052267
  C      -1.647061      1.086811     -1.091510
  O      -1.819856      2.149311     -1.928398
  C      -0.385842      0.693608     -0.701795
  H       3.522774     -0.486847      1.559150
  H       4.079891      0.117220     -0.025876
  H       3.591675     -1.589873      0.159352
  H      -1.263451     -1.917452      1.298857
  H      -3.612448     -1.892507      1.351876
  H      -2.778682      2.240998     -2.051647
  H       0.477064      1.233964     -1.068476
  O      -4.684022     -2.712421     -1.869716
  H      -5.233061     -1.982960     -2.197791
  H      -4.355468     -2.382424     -1.022767
  O      -6.287223      2.543327     -0.945758
  H      -5.400353      2.808852     -1.226085
  H      -6.513793      3.146469     -0.226085
  O      -4.800703      1.735735      1.795120
  H      -4.365488      1.126152      2.404324
  H      -4.077272      2.182854      1.337612
  O      -6.222571     -0.363261     -2.523730
  H      -7.149056     -0.359810     -2.793796
  H      -5.792943      0.322295     -3.049867
33
Coordinates from ORCA-job pb_P1_cplx E -1183.169458691578
  Pb     -5.906775      0.262908     -0.006739
  C       3.398501     -0.565839      0.476833
  O       2.086052     -0.159403      0.089337
  C       1.075405     -0.859599      0.610311
  O       1.256730     -1.791720      1.373832
  C      -0.242515     -0.392462      0.166798
  C      -1.369634     -1.070866      0.631026
  C      -2.622236     -0.663475      0.227481
  O      -3.779760     -1.283630      0.621397
  C      -2.803436      0.419040     -0.643380
  O      -3.979643      0.833329     -1.052843
  C      -1.648205      1.086636     -1.091355
  O      -1.821066      2.148471     -1.929062
  C      -0.387008      0.693834     -0.701169
  H       3.522926     -0.483217      1.557062
  H       4.078848      0.113378     -0.031285
  H       3.589523     -1.592544      0.162389
  H      -1.264663     -1.915990      1.301369
  H      -3.613898     -1.892720      1.352110
  H      -2.779900      2.240182     -2.052273
  H       0.476148      1.233852     -1.067712
  O      -4.674522     -2.707125     -1.875762
  H      -5.225642     -1.978875     -2.202780
  H      -4.351088     -2.379415     -1.026025
  O      -6.280610      2.545266     -0.945487
  H      -5.392221      2.809174     -1.222453
  H      -6.508971      3.147302     -0.225539
  O      -4.801387      1.734792      1.796544
  H      -4.364519      1.123601      2.402959
  H      -4.079130      2.182637      1.337870
  O      -6.225448     -0.366615     -2.523392
  H      -7.153497     -0.366163     -2.787849
  H      -5.800539      0.319940     -3.052285
33
Coordinates from ORCA-job pb_P1_cplx E -1183.169460340031
  Pb     -5.907953      0.261978     -0.009097
  C       3.396943     -0.564580      0.477660
  O       2.084465     -0.159121      0.089417
  C       1.073862     -0.857771      0.612619
  O       1.255204     -1.787784      1.378634
  C      -0.244151     -0.391687      0.167881
  C      -1.371022     -1.069945      0.632944
  C      -2.623526     -0.663801      0.228064
  O      -3.781541     -1.282937      0.622073
  C      -2.804590      0.416824     -0.645324
  O      -3.981011      0.828913     -1.056786
  C      -1.649727      1.084578     -1.093489
  O      -1.822616      2.144876     -1.933271
  C      -0.388474      0.693163     -0.701856
  H       3.522550     -0.476162      1.557322
  H       4.077350      0.111287     -0.034813
  H       3.586873     -1.593201      0.168903
  H      -1.265986     -1.913876      1.304744
  H      -3.616590     -1.893016      1.352179
  H      -2.781461      2.236053     -2.056886
  H       0.474870      1.232802     -1.068416
  O      -4.665586     -2.701197     -1.882755
  H      -5.219264     -1.974789     -2.209338
  H      -4.347563     -2.375673     -1.030198
  O      -6.270735      2.549157     -0.940413
  H      -5.380377      2.811315     -1.212567
  H      -6.500817      3.147605     -0.218162
  O      -4.799800      1.732862      1.796446
  H      -4.359267      1.119747      2.398426
  H      -4.079834      2.182117      1.335557
  O      -6.231944     -0.370706     -2.523315
  H      -7.161874     -0.366808     -2.781077
  H      -5.808590      0.314460     -3.055181
33
Coordinates from ORCA-job pb_P1_cplx E -1183.169485336335
  Pb     -5.908935      0.261918     -0.007692
  C       3.396659     -0.564024      0.477204
  O       2.083927     -0.157683      0.090979
  C       1.073690     -0.858074      0.612627
  O       1.255507     -1.789415      1.376863
  C      -0.244618     -0.391944      0.168432
  C      -1.371150     -1.070192      0.634491
  C      -2.623845     -0.664331      0.229972
  O      -3.781852     -1.282869      0.624569
  C      -2.805069      0.415881     -0.644036
  O      -3.981804      0.827214     -1.055621
  C      -1.650681      1.083630     -1.092863
  O      -1.823931      2.143474     -1.933230
  C      -0.389114      0.692502     -0.701606
  H       3.524306     -0.474190      1.556544
  H       4.076896      0.110531     -0.037234
  H       3.585159     -1.593215      0.169539
  H      -1.265604     -1.913749      1.306628
  H      -3.617423     -1.895354      1.352761
  H      -2.782827      2.234248     -2.056888
  H       0.474002      1.231880     -1.068999
  O      -4.659353     -2.694718     -1.887719
  H      -5.214201     -1.968636     -2.212921
  H      -4.346064     -2.372247     -1.032230
  O      -6.266891      2.547392     -0.943844
  H      -5.373969      2.805856     -1.211163
  H      -6.498813      3.146332     -0.222690
  O      -4.801290      1.733388      1.796716
  H      -4.359640      1.121842      2.399545
  H      -4.081894      2.183409      1.335596
  O      -6.235857     -0.372084     -2.522208
  H      -7.166468     -0.363889     -2.776813
  H      -5.811032      0.311802     -3.054785
33
Coordinates from ORCA-job pb_P1_cplx E -1183.169492137038
  Pb     -5.908316      0.260474     -0.004208
  C       3.396626     -0.560428      0.480421
  O       2.083547     -0.153027      0.096762
  C       1.074003     -0.857945      0.613708
  O       1.256700     -1.792000      1.374375
  C      -0.244653     -0.392993      0.169030
  C      -1.370765     -1.070726      0.637146
  C      -2.623763     -0.666513      0.231972
  O      -3.781289     -1.284655      0.627897
  C      -2.805496      0.411704     -0.644603
  O      -3.982618      0.821251     -1.057262
  C      -1.651652      1.078695     -1.095282
  O      -1.825446      2.136299     -1.938609
  C      -0.389598      0.689129     -0.703578
  H       3.526503     -0.469613      1.559449
  H       4.076575      0.113176     -0.035663
  H       3.583704     -1.589929      0.173049
  H      -1.264261     -1.912543      1.311268
  H      -3.617831     -1.898700      1.354934
  H      -2.784436      2.225890     -2.062651
  H       0.472745      1.228028     -1.073396
  O      -4.655939     -2.685774     -1.895841
  H      -5.211538     -1.958705     -2.217516
  H      -4.345818     -2.369239     -1.037012
  O      -6.266076      2.543946     -0.944225
  H      -5.370621      2.799838     -1.205750
  H      -6.499428      3.141078     -0.222096
  O      -4.798101      1.733446      1.794200
  H      -4.353333      1.124550      2.397464
  H      -4.080563      2.185620      1.332172
  O      -6.243886     -0.368955     -2.520829
  H      -7.174608     -0.349105     -2.774053
  H      -5.812553      0.312411     -3.051348
33
Coordinates from ORCA-job pb_P1_cplx E -1183.169494238063
  Pb     -5.907726      0.259715     -0.001330
  C       3.396695     -0.559801      0.482382
  O       2.083591     -0.152145      0.098992
  C       1.074153     -0.858669      0.613936
  O       1.257013     -1.793590      1.373554
  C      -0.244445     -0.394328      0.168807
  C      -1.370680     -1.070973      0.638281
  C      -2.623748     -0.667070      0.232986
  O      -3.780909     -1.284931      0.630203
  C      -2.805694      0.410195     -0.644709
  O      -3.982832      0.819972     -1.056793
  C      -1.651685      1.075748     -1.097227
  O      -1.825445      2.132124     -1.942137
  C      -0.389593      0.686303     -0.705583
  H       3.526303     -0.470339      1.561546
  H       4.076624      0.114685     -0.032597
  H       3.584022     -1.588767      0.173396
  H      -1.264025     -1.911705      1.313731
  H      -3.616998     -1.898861      1.357222
  H      -2.784434      2.221797     -2.066014
  H       0.472464      1.224450     -1.077203
  O      -4.651470     -2.680617     -1.900306
  H      -5.208112     -1.953005     -2.219260
  H      -4.342671     -2.366998     -1.039884
  O      -6.270214      2.541776     -0.943586
  H      -5.374701      2.799405     -1.203436
  H      -6.504340      3.137611     -0.220581
  O      -4.796022      1.734054      1.792754
  H      -4.348876      1.126913      2.395852
  H      -4.080499      2.188442      1.329810
  O      -6.246463     -0.366394     -2.519955
  H      -7.176847     -0.346196     -2.774203
  H      -5.814617      0.315883     -3.048723
33
Coordinates from ORCA-job pb_P1_cplx E -1183.169495509863
  Pb     -5.906017      0.257642      0.001565
  C       3.397006     -0.559155      0.485686
  O       2.083974     -0.152035      0.101143
  C       1.074533     -0.859109      0.615250
  O       1.257390     -1.793606      1.375487
  C      -0.243876     -0.395987      0.168983
  C      -1.370374     -1.071200      0.639844
  C      -2.623437     -0.668077      0.233707
  O      -3.780148     -1.286082      0.632002
  C      -2.805726      0.407582     -0.645772
  O      -3.982768      0.817418     -1.057793
  C      -1.651336      1.071395     -1.100374
  O      -1.824986      2.125799     -1.947713
  C      -0.389338      0.682480     -0.708145
  H       3.525105     -0.471572      1.565146
  H       4.076917      0.116948     -0.027210
  H       3.585587     -1.587296      0.174704
  H      -1.263763     -1.910430      1.317227
  H      -3.615556     -1.897742      1.360758
  H      -2.783965      2.215541     -2.071431
  H       0.472423      1.219808     -1.081774
  O      -4.646277     -2.674726     -1.907163
  H      -5.204439     -1.946516     -2.222408
  H      -4.338369     -2.365235     -1.044920
  O      -6.276499      2.539695     -0.939751
  H      -5.381932      2.801812     -1.198601
  H      -6.511284      3.132488     -0.214360
  O      -4.791624      1.735043      1.789427
  H      -4.340000      1.129907      2.391220
  H      -4.080224      2.193634      1.324407
  O      -6.250960     -0.362189     -2.519133
  H      -7.181284     -0.344211     -2.774213
  H      -5.820931      0.322663     -3.045870
33
Coordinates from ORCA-job pb_P1_cplx E -1183.169495791748
  Pb     -5.905392      0.256232      0.002626
  C       3.397201     -0.560250      0.486032
  O       2.084256     -0.153445      0.100632
  C       1.074679     -0.859480      0.615854
  O       1.257413     -1.793203      1.377124
  C      -0.243635     -0.396486      0.169540
  C      -1.370284     -1.071381      0.640422
  C      -2.623295     -0.668322      0.234083
  O      -3.779924     -1.286750      0.632327
  C      -2.805707      0.407125     -0.645512
  O      -3.982646      0.817074     -1.057508
  C      -1.651138      1.070685     -1.100356
  O      -1.824725      2.124838     -1.947935
  C      -0.389265      0.681759     -0.707954
  H       3.524240     -0.474135      1.565707
  H       4.077119      0.116933     -0.025426
  H       3.586591     -1.587862      0.173757
  H      -1.263865     -1.910490      1.318018
  H      -3.614673     -1.896803      1.362281
  H      -2.783701      2.214731     -2.071503
  H       0.472504      1.219001     -1.081765
  O      -4.641622     -2.671954     -1.910475
  H      -5.200876     -1.943826     -2.224021
  H      -4.335397     -2.364361     -1.046924
  O      -6.278690      2.538258     -0.939023
  H      -5.384567      2.802585     -1.197169
  H      -6.514274      3.130159     -0.213070
  O      -4.790807      1.736712      1.787650
  H      -4.336261      1.133018      2.388511
  H      -4.081891      2.197521      1.321017
  O      -6.253222     -0.361315     -2.518517
  H      -7.183782     -0.347343     -2.773120
  H      -5.826542      0.325460     -3.045376
33
Coordinates from ORCA-job pb_P1_cplx E -1183.169494540820
  Pb     -5.904475      0.253886      0.003096
  C       3.397574     -0.561616      0.485840
  O       2.084683     -0.156091      0.098697
  C       1.074991     -0.859530      0.617179
  O       1.257571     -1.790912      1.381358
  C      -0.243325     -0.396914      0.170573
  C      -1.369937     -1.071871      0.641265
  C      -2.622937     -0.669212      0.234498
  O      -3.779555     -1.288396      0.632351
  C      -2.805593      0.405869     -0.645393
  O      -3.982441      0.815527     -1.057968
  C      -1.650961      1.069644     -1.100105
  O      -1.824715      2.123542     -1.947877
  C      -0.389154      0.681106     -0.707315
  H       3.523267     -0.475656      1.565655
  H       4.077390      0.116240     -0.024856
  H       3.588259     -1.589038      0.173651
  H      -1.263705     -1.910891      1.319033
  H      -3.613833     -1.895302      1.364846
  H      -2.783729      2.213295     -2.071288
  H       0.472625      1.218532     -1.080888
  O      -4.636219     -2.668641     -1.915673
  H      -5.196258     -1.940289     -2.227237
  H      -4.333306     -2.364934     -1.049620
  O      -6.279705      2.537144     -0.936743
  H      -5.385882      2.803892     -1.193423
  H      -6.516760      3.127468     -0.210010
  O      -4.790913      1.739327      1.784866
  H      -4.332275      1.137890      2.385082
  H      -4.085728      2.203118      1.315677
  O      -6.255787     -0.360267     -2.518510
  H      -7.186964     -0.351903     -2.771297
  H      -5.834386      0.329666     -3.045540
33
Coordinates from ORCA-job pb_P1_cplx E -1183.169486258840
  Pb     -5.904673      0.253134      0.003217
  C       3.397688     -0.562189      0.484602
  O       2.084727     -0.157154      0.097244
  C       1.075112     -0.859798      0.616959
  O       1.257804     -1.790852      1.381493
  C      -0.243341     -0.396885      0.170908
  C      -1.369759     -1.072858      0.640587
  C      -2.622794     -0.669927      0.234241
  O      -3.779483     -1.289841      0.631327
  C      -2.805574      0.406108     -0.644424
  O      -3.982455      0.815779     -1.056869
  C      -1.651160      1.071030     -1.097950
  O      -1.825165      2.126051     -1.944257
  C      -0.389302      0.682367     -0.705444
  H       3.523054     -0.476662      1.564485
  H       4.077324      0.116162     -0.025667
  H       3.588943     -1.589429      0.172130
  H      -1.263462     -1.912782      1.317213
  H      -3.613526     -1.896037      1.364357
  H      -2.784202      2.215543     -2.067757
  H       0.472561      1.220478     -1.077813
  O      -4.635615     -2.668967     -1.915326
  H      -5.195555     -1.940751     -2.227301
  H      -4.333453     -2.365302     -1.048984
  O      -6.277128      2.535991     -0.938720
  H      -5.382524      2.800980     -1.194332
  H      -6.514656      3.127919     -0.213451
  O      -4.792953      1.741365      1.784100
  H      -4.333252      1.141617      2.385039
  H      -4.088189      2.204900      1.313867
  O      -6.256761     -0.360971     -2.517854
  H      -7.188186     -0.352974     -2.769703
  H      -5.836225      0.328642     -3.045992
33
Coordinates from ORCA-job pb_P1_cplx E -1183.169496762247
  Pb     -5.905271      0.251836      0.003105
  C       3.397799     -0.562922      0.481824
  O       2.084630     -0.159042      0.094201
  C       1.075243     -0.859721      0.617023
  O       1.258236     -1.789218      1.383306
  C      -0.243533     -0.396664      0.171601
  C      -1.369475     -1.074138      0.640238
  C      -2.622698     -0.671242      0.234407
  O      -3.779367     -1.292180      0.630652
  C      -2.805786      0.405844     -0.642956
  O      -3.982780      0.815154     -1.055548
  C      -1.651840      1.072500     -1.094946
  O      -1.826501      2.128895     -1.939431
  C      -0.389762      0.684014     -0.702890
  H       3.523502     -0.475412      1.561520
  H       4.077109      0.114633     -0.029918
  H       3.589326     -1.590742      0.171391
  H      -1.262863     -1.915096      1.315493
  H      -3.613322     -1.897124      1.364701
  H      -2.785604      2.217691     -2.063118
  H       0.472089      1.223130     -1.073730
  O      -4.635720     -2.669779     -1.915896
  H      -5.194455     -1.940753     -2.227732
  H      -4.334650     -2.367733     -1.048616
  O      -6.272601      2.535123     -0.939920
  H      -5.376529      2.797109     -1.193378
  H      -6.511180      3.129018     -0.216739
  O      -4.797285      1.744187      1.782742
  H      -4.336234      1.147550      2.385889
  H      -4.093265      2.207156      1.310822
  O      -6.256149     -0.361708     -2.518159
  H      -7.187632     -0.353381     -2.769405
  H      -5.835614      0.327696     -3.046610
33
Coordinates from ORCA-job pb_P1_cplx E -1183.169502652731
  Pb     -5.905903      0.251113      0.003281
  C       3.397492     -0.562744      0.480872
  O       2.084209     -0.159502      0.093146
  C       1.074933     -0.859253      0.617435
  O       1.258079     -1.787692      1.384938
  C      -0.243978     -0.396551      0.171802
  C      -1.369704     -1.074191      0.640758
  C      -2.623018     -0.671607      0.234876
  O      -3.779571     -1.292720      0.631228
  C      -2.806246      0.405375     -0.642651
  O      -3.983345      0.814346     -1.055250
  C      -1.652493      1.072156     -1.094819
  O      -1.827358      2.128462     -1.939406
  C      -0.390286      0.683903     -0.702881
  H       3.523861     -0.472497      1.560282
  H       4.076723      0.113323     -0.032936
  H       3.588602     -1.591404      0.172984
  H      -1.262796     -1.914980      1.316150
  H      -3.613504     -1.897886      1.365085
  H      -2.786449      2.217049     -2.063310
  H       0.471578      1.222938     -1.073767
  O      -4.635364     -2.669087     -1.916761
  H      -5.193780     -1.939766     -2.228693
  H      -4.334187     -2.367627     -1.049354
  O      -6.270347      2.535011     -0.939201
  H      -5.373538      2.795543     -1.191337
  H      -6.509456      3.129484     -0.216722
  O      -4.798758      1.743907      1.782632
  H      -4.336777      1.148400      2.386106
  H      -4.095002      2.206748      1.310054
  O      -6.255464     -0.361349     -2.518133
  H      -7.186717     -0.351791     -2.770230
  H      -5.833615      0.327575     -3.046249
33
Coordinates from ORCA-job pb_P1_cplx E -1183.169504009210
  Pb     -5.906774      0.249691      0.004117
  C       3.396804     -0.561061      0.480949
  O       2.083387     -0.158622      0.093143
  C       1.074319     -0.858389      0.617858
  O       1.257787     -1.786024      1.386245
  C      -0.244746     -0.396582      0.171531
  C      -1.370179     -1.074339      0.641141
  C      -2.623654     -0.672437      0.235014
  O      -3.779842     -1.293691      0.631757
  C      -2.807113      0.404183     -0.642998
  O      -3.984489      0.812658     -1.055231
  C      -1.653645      1.070797     -1.095872
  O      -1.828800      2.126564     -1.941180
  C      -0.391211      0.683093     -0.703965
  H       3.524107     -0.466946      1.559950
  H       4.075964      0.112952     -0.035650
  H       3.587336     -1.590834      0.176488
  H      -1.262705     -1.914502      1.317178
  H      -3.613798     -1.899705      1.364916
  H      -2.787859      2.214644     -2.065565
  H       0.470574      1.221852     -1.075372
  O      -4.638086     -2.668937     -1.917711
  H      -5.195243     -1.938311     -2.228768
  H      -4.334447     -2.367935     -1.050996
  O      -6.266647      2.535003     -0.936061
  H      -5.368515      2.792384     -1.186918
  H      -6.505785      3.130839     -0.214743
  O      -4.799416      1.742390      1.781844
  H      -4.335460      1.149442      2.386364
  H      -4.096697      2.205690      1.308097
  O      -6.254322     -0.359890     -2.518062
  H      -7.184728     -0.347004     -2.773026
  H      -5.828297      0.327712     -3.044548
33
Coordinates from ORCA-job pb_P1_cplx E -1183.169504497940
  Pb     -5.907519      0.247834      0.005924
  C       3.396161     -0.559538      0.481509
  O       2.082606     -0.157600      0.093741
  C       1.073753     -0.857316      0.618943
  O       1.257555     -1.784072      1.388327
  C      -0.245415     -0.396533      0.171976
  C      -1.370628     -1.074394      0.642034
  C      -2.624248     -0.673393      0.235388
  O      -3.780037     -1.295152      0.632055
  C      -2.808059      0.402790     -0.643077
  O      -3.985708      0.810608     -1.055037
  C      -1.654832      1.069396     -1.096530
  O      -1.830287      2.124643     -1.942428
  C      -0.392262      0.682343     -0.704419
  H       3.524484     -0.462001      1.560104
  H       4.075228      0.112502     -0.037771
  H       3.585904     -1.590352      0.180146
  H      -1.262692     -1.913946      1.318754
  H      -3.613758     -1.902038      1.364441
  H      -2.789305      2.212378     -2.067211
  H       0.469359      1.221020     -1.076312
  O      -4.639114     -2.666614     -1.921293
  H      -5.196218     -1.935192     -2.231224
  H      -4.333342     -2.366513     -1.055040
  O      -6.261418      2.534092     -0.934017
  H      -5.361793      2.787720     -1.183468
  H      -6.500364      3.132109     -0.214475
  O      -4.798657      1.740983      1.780973
  H      -4.331172      1.150740      2.385384
  H      -4.098428      2.205969      1.305098
  O      -6.256099     -0.358536     -2.516838
  H      -7.186222     -0.346527     -2.773017
  H      -5.829653      0.329275     -3.042714
33
Coordinates from ORCA-job pb_P1_cplx E -1183.169502990467
  Pb     -5.908924      0.243244      0.009361
  C       3.394401     -0.553732      0.485018
  O       2.080495     -0.153612      0.096530
  C       1.072237     -0.853811      0.622268
  O       1.256851     -1.778587      1.393885
  C      -0.247187     -0.396049      0.173277
  C      -1.371820     -1.074973      0.643321
  C      -2.625696     -0.676793      0.234646
  O      -3.780764     -1.300041      0.630311
  C      -2.810419      0.398185     -0.645064
  O      -3.988699      0.803462     -1.057506
  C      -1.657902      1.065864     -1.098636
  O      -1.834154      2.119887     -1.945908
  C      -0.395088      0.681151     -0.705037
  H       3.524190     -0.449209      1.562804
  H       4.073078      0.114730     -0.039373
  H       3.583331     -1.586497      0.190002
  H      -1.262993     -1.913188      1.321573
  H      -3.614057     -1.908865      1.361004
  H      -2.793094      2.206086     -2.072126
  H       0.466006      1.220531     -1.077177
  O      -4.645484     -2.663063     -1.929332
  H      -5.201602     -1.929250     -2.235432
  H      -4.334063     -2.364913     -1.064404
  O      -6.244788      2.532994     -0.927920
  H      -5.341463      2.776329     -1.174731
  H      -6.481856      3.136068     -0.211974
  O      -4.792303      1.736611      1.778166
  H      -4.315644      1.151022      2.379866
  H      -4.098987      2.206367      1.296759
  O      -6.263986     -0.354536     -2.514037
  H      -7.193952     -0.344578     -2.770842
  H      -5.837845      0.333852     -3.039369
33
Coordinates from ORCA-job pb_P1_cplx E -1183.169512192184
  Pb     -5.909664      0.240432      0.012246
  C       3.392803     -0.546950      0.489680
  O       2.078634     -0.148177      0.100469
  C       1.070983     -0.850929      0.623932
  O       1.256263     -1.775896      1.395205
  C      -0.248616     -0.395587      0.173320
  C      -1.372830     -1.075852      0.642474
  C      -2.626838     -0.679728      0.232234
  O      -3.781543     -1.304019      0.626890
  C      -2.812280      0.394748     -0.647837
  O      -3.991002      0.798217     -1.060595
  C      -1.660309      1.063828     -1.100724
  O      -1.837137      2.117379     -1.948415
  C      -0.397385      0.680950     -0.705745
  H       3.522603     -0.440188      1.567246
  H       4.071053      0.120927     -0.036024
  H       3.582258     -1.580128      0.196562
  H      -1.263469     -1.913412      1.321474
  H      -3.614624     -1.914561      1.356120
  H      -2.796023      2.202427     -2.075703
  H       0.463154      1.221530     -1.077481
  O      -4.656693     -2.664136     -1.931896
  H      -5.210816     -1.928312     -2.237120
  H      -4.339714     -2.365762     -1.069098
  O      -6.228154      2.532321     -0.924555
  H      -5.321540      2.765040     -1.170016
  H      -6.461993      3.140677     -0.212076
  O      -4.784767      1.731739      1.776893
  H      -4.302502      1.148523      2.376538
  H      -4.096175      2.204962      1.292168
  O      -6.271000     -0.351387     -2.511702
  H      -7.201007     -0.341054     -2.768476
  H      -5.843851      0.337062     -3.036063
33
Coordinates from ORCA-job pb_P1_cplx E -1183.169516265438
  Pb     -5.909646      0.239821      0.015241
  C       3.390500     -0.535928      0.498610
  O       2.076119     -0.138418      0.108007
  C       1.069404     -0.848306      0.623408
  O       1.255398     -1.777157      1.389901
  C      -0.250308     -0.395452      0.171213
  C      -1.374327     -1.077267      0.638508
  C      -2.628283     -0.682821      0.226749
  O      -3.783221     -1.306976      0.620995
  C      -2.814445      0.391270     -0.653455
  O      -3.993393      0.793380     -1.066856
  C      -1.662843      1.062189     -1.104813
  O      -1.839937      2.115522     -1.952515
  C      -0.400032      0.681121     -0.707867
  H       3.517131     -0.435654      1.577122
  H       4.067969      0.137414     -0.021134
  H       3.583730     -1.566545      0.199117
  H      -1.265040     -1.914458      1.318049
  H      -3.615984     -1.920044      1.348047
  H      -2.798826      2.199808     -2.080332
  H       0.459654      1.223774     -1.078711
  O      -4.677206     -2.672067     -1.927269
  H      -5.226836     -1.933993     -2.234923
  H      -4.354732     -2.371068     -1.067503
  O      -6.207171      2.532775     -0.922772
  H      -5.297230      2.752706     -1.168074
  H      -6.435294      3.146721     -0.213241
  O      -4.770606      1.724257      1.777914
  H      -4.284560      1.139317      2.372973
  H      -4.086312      2.201744      1.291607
  O      -6.278658     -0.347624     -2.509779
  H      -7.208451     -0.334491     -2.767115
  H      -5.848745      0.341136     -3.031178
33
Coordinates from ORCA-job pb_P1_cplx E -1183.169517268846
  Pb     -5.910900      0.238721      0.017368
  C       3.389020     -0.530779      0.502414
  O       2.074345     -0.134567      0.111258
  C       1.068313     -0.846722      0.624764
  O       1.254993     -1.776027      1.390563
  C      -0.251708     -0.395690      0.171717
  C      -1.375304     -1.078300      0.638957
  C      -2.629338     -0.685580      0.225892
  O      -3.784165     -1.310192      0.619798
  C      -2.816210      0.387364     -0.655472
  O      -3.995440      0.787394     -1.070050
  C      -1.665172      1.059353     -1.106596
  O      -1.842805      2.111605     -1.955396
  C      -0.402230      0.679979     -0.708379
  H       3.514755     -0.431669      1.581123
  H       4.065886      0.144203     -0.016012
  H       3.583905     -1.560702      0.201629
  H      -1.265678     -1.914734      1.319390
  H      -3.616255     -1.925332      1.344951
  H      -2.801677      2.194816     -2.084011
  H       0.457065      1.223258     -1.079253
  O      -4.679980     -2.669616     -1.930466
  H      -5.229506     -1.931187     -2.237504
  H      -4.355517     -2.368241     -1.071609
  O      -6.194874      2.532824     -0.920266
  H      -5.282353      2.744928     -1.163061
  H      -6.421301      3.149889     -0.212942
  O      -4.764028      1.721556      1.776983
  H      -4.270710      1.137067      2.366354
  H      -4.085939      2.204596      1.287430
  O      -6.285915     -0.344673     -2.506899
  H      -7.215680     -0.334219     -2.764684
  H      -5.857777      0.345363     -3.028066
33
Coordinates from ORCA-job pb_P1_cplx E -1183.169521414242
  Pb     -5.910591      0.245948      0.015730
  C       3.389619     -0.528075      0.507000
  O       2.074809     -0.131992      0.115359
  C       1.069634     -0.850518      0.621182
  O       1.256710     -1.786290      1.378885
  C      -0.250919     -0.397979      0.170522
  C      -1.374462     -1.080585      0.637734
  C      -2.628232     -0.686938      0.225282
  O      -3.784458     -1.309271      0.620971
  C      -2.815458      0.384536     -0.657707
  O      -3.993944      0.783461     -1.076349
  C      -1.664514      1.057654     -1.107543
  O      -1.842228      2.108951     -1.957081
  C      -0.401653      0.678692     -0.708396
  H       3.507692     -0.452998      1.588391
  H       4.065084      0.162904      0.008127
  H       3.593330     -1.549615      0.183998
  H      -1.266150     -1.917793      1.317465
  H      -3.615115     -1.925504      1.344834
  H      -2.801357      2.192213     -2.084287
  H       0.457389      1.222724     -1.078835
  O      -4.676932     -2.671783     -1.921652
  H      -5.227506     -1.936953     -2.233923
  H      -4.357495     -2.365545     -1.062848
  O      -6.198952      2.536327     -0.924964
  H      -5.286990      2.751093     -1.166645
  H      -6.425302      3.149612     -0.214335
  O      -4.758166      1.725413      1.780438
  H      -4.260363      1.130202      2.355191
  H      -4.085956      2.217779      1.292538
  O      -6.291635     -0.343757     -2.505987
  H      -7.220376     -0.337108     -2.767485
  H      -5.867694      0.349877     -3.025684
33
Coordinates from ORCA-job pb_P1_cplx E -1183.169547807268
  Pb     -5.911973      0.243029      0.016306
  C       3.388924     -0.526099      0.505627
  O       2.073842     -0.132413      0.113553
  C       1.068829     -0.847715      0.624503
  O       1.256563     -1.779770      1.386494
  C      -0.252043     -0.396633      0.172521
  C      -1.374564     -1.081287      0.639313
  C      -2.628801     -0.689460      0.226250
  O      -3.784008     -1.314084      0.620696
  C      -2.816404      0.382068     -0.656863
  O      -3.995454      0.778610     -1.076086
  C      -1.666351      1.057023     -1.105730
  O      -1.845353      2.108732     -1.954800
  C      -0.402967      0.679738     -0.706375
  H       3.508884     -0.441614      1.586211
  H       4.064328      0.159685     -0.000340
  H       3.591152     -1.550824      0.191853
  H      -1.264900     -1.918450      1.318785
  H      -3.614606     -1.929627      1.345138
  H      -2.804433      2.190163     -2.083401
  H       0.455935      1.224602     -1.075726
  O      -4.679895     -2.667916     -1.930314
  H      -5.230457     -1.930800     -2.237244
  H      -4.355454     -2.364869     -1.072012
  O      -6.185597      2.535670     -0.922384
  H      -5.270225      2.741259     -1.160171
  H      -6.410454      3.153574     -0.215466
  O      -4.759946      1.724200      1.776791
  H      -4.257321      1.133026      2.351606
  H      -4.090185      2.216889      1.285523
  O      -6.298095     -0.344642     -2.505077
  H      -7.227552     -0.335070     -2.762931
  H      -5.873603      0.347687     -3.026326
33
Coordinates from ORCA-job pb_P1_cplx E -1183.169584501591
  Pb     -5.912609      0.242361      0.016808
  C       3.387055     -0.522108      0.508181
  O       2.071934     -0.130531      0.114648
  C       1.067017     -0.844827      0.627373
  O       1.255143     -1.774736      1.391878
  C      -0.253862     -0.395718      0.173401
  C      -1.375942     -1.080974      0.640527
  C      -2.630360     -0.691035      0.226098
  O      -3.784937     -1.316171      0.620892
  C      -2.818067      0.379262     -0.658641
  O      -3.997468      0.773667     -1.078858
  C      -1.668472      1.054733     -1.107586
  O      -1.847861      2.105404     -1.958056
  C      -0.404899      0.679119     -0.707125
  H       3.506554     -0.433949      1.588557
  H       4.062324      0.162260      0.000184
  H       3.589900     -1.547864      0.198172
  H      -1.265442     -1.916843      1.321398
  H      -3.615049     -1.932885      1.344226
  H      -2.806850      2.185504     -2.088104
  H       0.453936      1.224024     -1.076469
  O      -4.680980     -2.663755     -1.936254
  H      -5.231702     -1.925824     -2.241579
  H      -4.357601     -2.363485     -1.076358
  O      -6.173709      2.536878     -0.918709
  H      -5.255663      2.735247     -1.152726
  H      -6.396800      3.156987     -0.213181
  O      -4.752987      1.718443      1.775441
  H      -4.243344      1.126013      2.342492
  H      -4.087881      2.215322      1.281698
  O      -6.304881     -0.343946     -2.503996
  H      -7.235266     -0.336158     -2.759001
  H      -5.883414      0.350268     -3.025407
33
Coordinates from ORCA-job pb_P1_cplx E -1183.169557177922
  Pb     -5.912382      0.242689      0.016690
  C       3.385742     -0.517559      0.512064
  O       2.070699     -0.129595      0.115206
  C       1.065818     -0.842098      0.630674
  O       1.254165     -1.768518      1.399327
  C      -0.255020     -0.395424      0.174029
  C      -1.376657     -1.081524      0.641031
  C      -2.631253     -0.693766      0.224855
  O      -3.785152     -1.319675      0.619912
  C      -2.818983      0.375191     -0.661501
  O      -3.998587      0.767498     -1.083162
  C      -1.669835      1.051513     -1.109983
  O      -1.849840      2.101411     -1.961540
  C      -0.406088      0.677956     -0.708112
  H       3.503332     -0.425580      1.592348
  H       4.060816      0.166083      0.002870
  H       3.590786     -1.544109      0.206089
  H      -1.265415     -1.916070      1.323353
  H      -3.614775     -1.936020      1.343438
  H      -2.808803      2.179774     -2.092989
  H       0.452653      1.223301     -1.076924
  O      -4.683382     -2.659620     -1.942062
  H      -5.234319     -1.920860     -2.244940
  H      -4.360995     -2.362546     -1.080613
  O      -6.164539      2.539257     -0.914158
  H      -5.244003      2.730986     -1.144828
  H      -6.385139      3.160483     -0.208749
  O      -4.743811      1.713022      1.773497
  H      -4.226374      1.117279      2.330194
  H      -4.085101      2.215504      1.276767
  O      -6.313811     -0.342503     -2.503521
  H      -7.245368     -0.336119     -2.754384
  H      -5.896559      0.354325     -3.024951
33
Coordinates from ORCA-job pb_P1_cplx E -1183.169541641245
  Pb     -5.911634      0.244368      0.016524
  C       3.384552     -0.513235      0.517370
  O       2.069793     -0.128379      0.116740
  C       1.064767     -0.840060      0.633245
  O       1.253077     -1.763999      1.404918
  C      -0.255798     -0.395558      0.174021
  C      -1.377395     -1.081993      0.640649
  C      -2.632046     -0.695937      0.222862
  O      -3.785428     -1.322123      0.618533
  C      -2.819523      0.371825     -0.664941
  O      -3.999190      0.762848     -1.087756
  C      -1.670535      1.048624     -1.112927
  O      -1.850820      2.097982     -1.965313
  C      -0.406835      0.676707     -0.709513
  H       3.499296     -0.419957      1.597844
  H       4.059553      0.171205      0.009153
  H       3.592442     -1.539699      0.212984
  H      -1.265768     -1.915278      1.324446
  H      -3.614631     -1.937620      1.342674
  H      -2.809770      2.175025     -2.097714
  H       0.451839      1.222458     -1.077836
  O      -4.685698     -2.656378     -1.945707
  H      -5.237092     -1.917342     -2.246923
  H      -4.365256     -2.361853     -1.082608
  O      -6.158833      2.542113     -0.910677
  H      -5.236876      2.729563     -1.139438
  H      -6.376542      3.162806     -0.203859
  O      -4.731822      1.706771      1.772629
  H      -4.205801      1.105037      2.314394
  H      -4.080465      2.216477      1.273341
  O      -6.322733     -0.341034     -2.502950
  H      -7.255383     -0.338231     -2.750017
  H      -5.911627      0.359550     -3.024223
33
Coordinates from ORCA-job pb_P1_cplx E -1183.169574308035
  Pb     -5.910365      0.245823      0.016440
  C       3.383845     -0.509395      0.523004
  O       2.069448     -0.127572      0.118232
  C       1.064236     -0.838415      0.635617
  O       1.252277     -1.759765      1.410490
  C      -0.255984     -0.396077      0.173773
  C      -1.377720     -1.082708      0.639710
  C      -2.632317     -0.698124      0.220264
  O      -3.785368     -1.324648      0.616025
  C      -2.819489      0.368779     -0.668497
  O      -3.999142      0.759198     -1.092061
  C      -1.670503      1.045881     -1.115972
  O      -1.850905      2.094812     -1.968986
  C      -0.406984      0.675324     -0.711005
  H       3.496008     -0.413472      1.603500
  H       4.058920      0.175065      0.014864
  H       3.594236     -1.536111      0.221209
  H      -1.265906     -1.914923      1.324804
  H      -3.614933     -1.937716      1.342277
  H      -2.809848      2.170848     -2.102086
  H       0.451672      1.221464     -1.078814
  O      -4.689257     -2.654214     -1.948304
  H      -5.241013     -1.914880     -2.247950
  H      -4.369172     -2.361855     -1.084452
  O      -6.156673      2.544729     -0.907188
  H      -5.233939      2.729425     -1.135459
  H      -6.371238      3.163920     -0.197985
  O      -4.719595      1.700794      1.772270
  H      -4.184773      1.092508      2.298204
  H      -4.077037      2.218613      1.270039
  O      -6.330824     -0.338830     -2.502457
  H      -7.264468     -0.338886     -2.746039
  H      -5.925371      0.365092     -3.023543
33
Coordinates from ORCA-job pb_P1_cplx E -1183.169585819919
  Pb     -5.909294      0.246376      0.016748
  C       3.383287     -0.506683      0.528311
  O       2.069288     -0.126980      0.119897
  C       1.063804     -0.836877      0.638034
  O       1.251320     -1.755860      1.415900
  C      -0.256025     -0.396503      0.173777
  C      -1.378105     -1.082953      0.639052
  C      -2.632497     -0.699589      0.217954
  O      -3.785515     -1.326229      0.613372
  C      -2.819393      0.366500     -0.671724
  O      -3.999007      0.756699     -1.095806
  C      -1.670266      1.043560     -1.118988
  O      -1.850439      2.091846     -1.972812
  C      -0.407066      0.674011     -0.712382
  H       3.493864     -0.406626      1.608571
  H       4.058697      0.176412      0.018705
  H       3.594828     -1.534244      0.230307
  H      -1.266410     -1.914201      1.325402
  H      -3.616111     -1.936162      1.342476
  H      -2.809351      2.167526     -2.106299
  H       0.451606      1.220398     -1.079881
  O      -4.691918     -2.652304     -1.951162
  H      -5.244215     -1.912507     -2.248342
  H      -4.371005     -2.362193     -1.086997
  O      -6.156650      2.546676     -0.903822
  H      -5.233966      2.730469     -1.132671
  H      -6.368439      3.163088     -0.191292
  O      -4.707660      1.694398      1.773208
  H      -4.161759      1.079792      2.279795
  H      -4.076069      2.222209      1.267461
  O      -6.337765     -0.336029     -2.501407
  H      -7.271964     -0.340277     -2.742868
  H      -5.937986      0.370942     -3.022592
33
Coordinates from ORCA-job pb_P1_cplx E -1183.169599971505
  Pb     -5.908546      0.245272      0.017246
  C       3.383477     -0.507895      0.530430
  O       2.069810     -0.127614      0.120930
  C       1.063932     -0.836812      0.639108
  O       1.250653     -1.755102      1.418032
  C      -0.255567     -0.396760      0.174025
  C      -1.378206     -1.082600      0.638772
  C      -2.632186     -0.699037      0.217014
  O      -3.785778     -1.325413      0.611165
  C      -2.818817      0.367117     -0.672602
  O      -3.998333      0.758109     -1.096281
  C      -1.669306      1.043518     -1.120070
  O      -1.848743      2.091479     -1.974253
  C      -0.406518      0.673627     -0.712638
  H       3.494996     -0.402707      1.610092
  H       4.059665      0.171806      0.017251
  H       3.593192     -1.537031      0.236769
  H      -1.267145     -1.913803      1.325349
  H      -3.619014     -1.930352      1.345006
  H      -2.807614      2.168098     -2.107344
  H       0.452371      1.219779     -1.080131
  O      -4.690245     -2.650880     -1.953339
  H      -5.243528     -1.910770     -2.247943
  H      -4.367956     -2.363017     -1.089123
  O      -6.161455      2.547031     -0.902364
  H      -5.239388      2.732359     -1.132306
  H      -6.372371      3.160197     -0.186696
  O      -4.702750      1.690388      1.776217
  H      -4.144708      1.072007      2.265132
  H      -4.084073      2.229601      1.267022
  O      -6.339438     -0.335138     -2.500762
  H      -7.273996     -0.344477     -2.740750
  H      -5.944596      0.373706     -3.023030
33
Coordinates from ORCA-job pb_P1_cplx E -1183.169611636461
  Pb     -5.908724      0.243194      0.017571
  C       3.382792     -0.508961      0.531777
  O       2.069297     -0.127713      0.122209
  C       1.063162     -0.836343      0.640481
  O       1.249300     -1.754348      1.419914
  C      -0.256154     -0.396422      0.174938
  C      -1.379161     -1.081942      0.639321
  C      -2.632689     -0.698240      0.216824
  O      -3.786916     -1.324558      0.609347
  C      -2.819200      0.367920     -0.672905
  O      -3.998656      0.759051     -1.096605
  C      -1.669446      1.043915     -1.120449
  O      -1.848017      2.091469     -1.975074
  C      -0.407007      0.673697     -0.712193
  H       3.495719     -0.399336      1.610851
  H       4.059604      0.167487      0.015099
  H       3.590308     -1.539575      0.241916
  H      -1.268659     -1.913183      1.325967
  H      -3.622998     -1.924597      1.347828
  H      -2.806775      2.169042     -2.108178
  H       0.452136      1.219575     -1.079602
  O      -4.687602     -2.649546     -1.956202
  H      -5.241412     -1.908786     -2.247917
  H      -4.364680     -2.364272     -1.091369
  O      -6.162399      2.547726     -0.899976
  H      -5.240320      2.732469     -1.129534
  H      -6.372519      3.158156     -0.181754
  O      -4.697708      1.684304      1.779571
  H      -4.121130      1.064724      2.244088
  H      -4.096636      2.239303      1.265954
  O      -6.340397     -0.334657     -2.499441
  H      -7.274818     -0.350749     -2.739448
  H      -5.950478      0.375881     -3.023082
33
Coordinates from ORCA-job pb_P1_cplx E -1183.169632356775
  Pb     -5.910943      0.238441      0.017019
  C       3.382932     -0.520044      0.522037
  O       2.069127     -0.130328      0.121229
  C       1.062618     -0.840023      0.636921
  O       1.248016     -1.763806      1.409631
  C      -0.256870     -0.394604      0.176414
  C      -1.380472     -1.079440      0.640679
  C      -2.633168     -0.691066      0.220940
  O      -3.789403     -1.316691      0.609782
  C      -2.819445      0.378230     -0.665454
  O      -3.998561      0.772125     -1.086664
  C      -1.668911      1.052806     -1.113334
  O      -1.845315      2.102009     -1.965826
  C      -0.406858      0.678086     -0.707441
  H       3.503303     -0.410073      1.600317
  H       4.060709      0.151689      0.000539
  H       3.581764     -1.552204      0.231808
  H      -1.271591     -1.913830      1.323682
  H      -3.631772     -1.907807      1.356807
  H      -2.803828      2.183770     -2.097651
  H       0.453139      1.222607     -1.074983
  O      -4.675069     -2.653074     -1.954062
  H      -5.228884     -1.911758     -2.244937
  H      -4.352572     -2.369090     -1.088553
  O      -6.168604      2.545799     -0.905476
  H      -5.246243      2.731104     -1.133339
  H      -6.382203      3.156309     -0.188540
  O      -4.714757      1.682456      1.790391
  H      -4.114036      1.069437      2.233434
  H      -4.137501      2.259910      1.274728
  O      -6.323626     -0.342952     -2.499969
  H      -7.257199     -0.368743     -2.741812
  H      -5.935956      0.365437     -3.028391
33
Coordinates from ORCA-job pb_P1_cplx E -1183.169643116277
  Pb     -5.910690      0.239798      0.018206
  C       3.380358     -0.510323      0.530804
  O       2.066519     -0.125461      0.125792
  C       1.060610     -0.837708      0.639332
  O       1.246860     -1.760796      1.412670
  C      -0.258924     -0.395464      0.175955
  C      -1.381828     -1.082464      0.638808
  C      -2.634776     -0.696691      0.217074
  O      -3.790130     -1.323814      0.606374
  C      -2.821381      0.371417     -0.670608
  O      -4.000663      0.762709     -1.093853
  C      -1.671558      1.048316     -1.116486
  O      -1.848970      2.097473     -1.969115
  C      -0.409306      0.676567     -0.708500
  H       3.495200     -0.405605      1.610193
  H       4.057108      0.167496      0.015902
  H       3.585798     -1.539998      0.236202
  H      -1.272066     -1.915786      1.322937
  H      -3.631144     -1.913951      1.353877
  H      -2.807463      2.176502     -2.102918
  H       0.450206      1.222832     -1.074506
  O      -4.684387     -2.651893     -1.957828
  H      -5.237063     -1.909536     -2.248223
  H      -4.361972     -2.369252     -1.091821
  O      -6.150517      2.550686     -0.898790
  H      -5.224287      2.721884     -1.121784
  H      -6.358213      3.164270     -0.182925
  O      -4.698499      1.672337      1.788224
  H      -4.076104      1.063192      2.203366
  H      -4.142052      2.268522      1.269437
  O      -6.337310     -0.341062     -2.496515
  H      -7.271252     -0.369788     -2.737105
  H      -5.954285      0.370275     -3.024248
33
Coordinates from ORCA-job pb_P1_cplx E -1183.169626951992
  Pb     -5.913443      0.241454      0.017014
  C       3.380098     -0.513333      0.522342
  O       2.065594     -0.125525      0.123318
  C       1.060227     -0.841479      0.632976
  O       1.247710     -1.770351      1.398962
  C      -0.259863     -0.395198      0.174288
  C      -1.382153     -1.083583      0.636820
  C      -2.635625     -0.694798      0.218811
  O      -3.790564     -1.322723      0.609070
  C      -2.822517      0.376190     -0.665400
  O      -4.001680      0.768879     -1.087077
  C      -1.672827      1.054041     -1.109983
  O      -1.850762      2.106558     -1.958663
  C      -0.409979      0.680047     -0.705677
  H       3.494871     -0.424122      1.603155
  H       4.055635      0.172530      0.016733
  H       3.586952     -1.538748      0.213872
  H      -1.271970     -1.919514      1.317571
  H      -3.629355     -1.916361      1.353347
  H      -2.809244      2.185540     -2.092642
  H       0.449417      1.226825     -1.070914
  O      -4.685789     -2.661098     -1.945574
  H      -5.234571     -1.918835     -2.243185
  H      -4.364799     -2.371813     -1.080960
  O      -6.145069      2.550348     -0.904972
  H      -5.216386      2.715645     -1.123832
  H      -6.354647      3.172127     -0.196911
  O      -4.718880      1.679434      1.790976
  H      -4.096986      1.077476      2.219570
  H      -4.161351      2.278541      1.277554
  O      -6.322614     -0.348682     -2.497595
  H      -7.254574     -0.369795     -2.746735
  H      -5.927037      0.355007     -3.026333
33
Coordinates from ORCA-job pb_P1_cplx E -1183.169661296197
  Pb     -5.914520      0.240370      0.015769
  C       3.379891     -0.517571      0.518162
  O       2.065305     -0.126723      0.122359
  C       1.059671     -0.841773      0.632754
  O       1.246875     -1.771357      1.397910
  C      -0.260342     -0.393814      0.175400
  C      -1.383004     -1.080772      0.639007
  C      -2.636387     -0.691267      0.221339
  O      -3.791591     -1.318757      0.611386
  C      -2.822970      0.379546     -0.663271
  O      -4.001900      0.772616     -1.085071
  C      -1.672771      1.055973     -1.108927
  O      -1.850013      2.107722     -1.958664
  C      -0.410060      0.681000     -0.705180
  H       3.497967     -0.427049      1.598527
  H       4.055847      0.165580      0.009493
  H       3.582908     -1.544122      0.210937
  H      -1.273406     -1.916715      1.319834
  H      -3.631731     -1.910815      1.357186
  H      -2.808400      2.187758     -2.092486
  H       0.449362      1.226800     -1.071828
  O      -4.679730     -2.661721     -1.945544
  H      -5.228821     -1.919497     -2.243487
  H      -4.359868     -2.373215     -1.080403
  O      -6.146887      2.551512     -0.904603
  H      -5.218305      2.718999     -1.122089
  H      -6.358137      3.171463     -0.195317
  O      -4.725747      1.675616      1.795460
  H      -4.095701      1.076157      2.215807
  H      -4.177010      2.284698      1.284680
  O      -6.316069     -0.351830     -2.499699
  H      -7.247689     -0.374150     -2.749512
  H      -5.918949      0.350022     -3.030001
33
Coordinates from ORCA-job pb_P1_cplx E -1183.169657794841
  Pb     -5.915018      0.240464      0.014373
  C       3.379754     -0.519122      0.516404
  O       2.065192     -0.127470      0.121286
  C       1.059383     -0.841111      0.633389
  O       1.246417     -1.769697      1.399765
  C      -0.260514     -0.392942      0.176005
  C      -1.383376     -1.079321      0.639692
  C      -2.636859     -0.690273      0.221647
  O      -3.791789     -1.318062      0.611596
  C      -2.823272      0.380147     -0.663351
  O      -4.001970      0.773135     -1.085869
  C      -1.672807      1.056225     -1.109061
  O      -1.850099      2.107621     -1.959349
  C      -0.410133      0.681468     -0.705262
  H       3.499389     -0.426473      1.596419
  H       4.055936      0.162013      0.005336
  H       3.581039     -1.546633      0.211241
  H      -1.273994     -1.915059      1.320843
  H      -3.631563     -1.910734      1.356817
  H      -2.808486      2.187122     -2.093522
  H       0.449065      1.227277     -1.072442
  O      -4.680247     -2.664862     -1.942872
  H      -5.228462     -1.922354     -2.241566
  H      -4.359158     -2.375081     -1.078619
  O      -6.148705      2.553427     -0.901405
  H      -5.220809      2.723989     -1.119473
  H      -6.360166      3.170471     -0.189498
  O      -4.728091      1.672747      1.796977
  H      -4.091997      1.074771      2.210507
  H      -4.186125      2.289805      1.288763
  O      -6.312568     -0.352246     -2.501515
  H      -7.243373     -0.369654     -2.754507
  H      -5.908776      0.345095     -3.032824
33
Coordinates from ORCA-job pb_P1_cplx E -1183.169680124507
  Pb     -5.915211      0.241723      0.013636
  C       3.380129     -0.520109      0.514916
  O       2.065589     -0.128615      0.119468
  C       1.059714     -0.840919      0.633451
  O       1.246693     -1.768174      1.401426
  C      -0.260126     -0.392875      0.176001
  C      -1.383103     -1.079278      0.638947
  C      -2.636888     -0.690758      0.220915
  O      -3.791261     -1.319297      0.610940
  C      -2.823286      0.379947     -0.663462
  O      -4.001677      0.773388     -1.086539
  C      -1.672660      1.056446     -1.108439
  O      -1.850631      2.108397     -1.958106
  C      -0.409920      0.682051     -0.704953
  H       3.500563     -0.425382      1.594648
  H       4.056371      0.159672      0.002078
  H       3.580826     -1.548286      0.211609
  H      -1.273698     -1.915264      1.319866
  H      -3.629023     -1.915169      1.353185
  H      -2.809168      2.186553     -2.092317
  H       0.448883      1.228612     -1.071966
  O      -4.685420     -2.670773     -1.937183
  H      -5.231715     -1.927709     -2.238424
  H      -4.361185     -2.377885     -1.075256
  O      -6.152048      2.554894     -0.897854
  H      -5.225714      2.730506     -1.118657
  H      -6.362992      3.168451     -0.182725
  O      -4.731053      1.672525      1.797790
  H      -4.088202      1.077779      2.205495
  H      -4.196801      2.298650      1.292450
  O      -6.308723     -0.351952     -2.503027
  H      -7.237995     -0.359499     -2.762245
  H      -5.892451      0.337034     -3.035741
33
Coordinates from ORCA-job pb_P1_cplx E -1183.169669200133
  Pb     -5.914875      0.242630      0.013490
  C       3.380461     -0.520132      0.514665
  O       2.065951     -0.129487      0.118262
  C       1.060107     -0.841186      0.633161
  O       1.247117     -1.767659      1.402091
  C      -0.259768     -0.393475      0.175638
  C      -1.382639     -1.080577      0.637665
  C      -2.636576     -0.692219      0.219858
  O      -3.790702     -1.321208      0.609830
  C      -2.823040      0.379255     -0.663468
  O      -4.001347      0.773100     -1.086548
  C      -1.672572      1.056718     -1.107509
  O      -1.851198      2.109616     -1.955877
  C      -0.409785      0.682436     -0.704229
  H       3.500625     -0.423864      1.594283
  H       4.056696      0.159229      0.001219
  H       3.581681     -1.548549      0.212556
  H      -1.272929     -1.917079      1.317936
  H      -3.627076     -1.919337      1.349967
  H      -2.809880      2.186942     -2.089829
  H       0.449027      1.229607     -1.070297
  O      -4.690401     -2.674834     -1.932988
  H      -5.234921     -1.931346     -2.235852
  H      -4.364369     -2.379695     -1.072444
  O      -6.155105      2.555077     -0.895378
  H      -5.230099      2.733952     -1.119341
  H      -6.365078      3.166955     -0.178420
  O      -4.731095      1.673611      1.796598
  H      -4.083372      1.082094      2.201177
  H      -4.202332      2.305018      1.291938
  O      -6.306465     -0.351007     -2.504009
  H      -7.234826     -0.353036     -2.766599
  H      -5.883395      0.333135     -3.037619
33
Coordinates from ORCA-job pb_P1_cplx E -1183.169700801477
  Pb     -5.913909      0.243147      0.014168
  C       3.381098     -0.519329      0.515830
  O       2.066622     -0.129881      0.118126
  C       1.060885     -0.841717      0.632975
  O       1.247957     -1.767928      1.402225
  C      -0.259090     -0.394427      0.175288
  C      -1.381729     -1.082372      0.636635
  C      -2.635751     -0.694107      0.219054
  O      -3.789841     -1.323291      0.609057
  C      -2.822356      0.377963     -0.663532
  O      -4.000670      0.771912     -1.086624
  C      -1.672162      1.056415     -1.106844
  O      -1.851439      2.109932     -1.954208
  C      -0.409327      0.682320     -0.703554
  H       3.500168     -0.422465      1.595513
  H       4.057276      0.160513      0.002915
  H       3.583618     -1.547569      0.214034
  H      -1.271635     -1.919303      1.316321
  H      -3.625202     -1.922841      1.347836
  H      -2.810288      2.186930     -2.087425
  H       0.449641      1.229930     -1.068586
  O      -4.694741     -2.675868     -1.932116
  H      -5.238587     -1.932207     -2.236038
  H      -4.367378     -2.379872     -1.072441
  O      -6.156801      2.554227     -0.893992
  H      -5.232946      2.734743     -1.121230
  H      -6.365193      3.165795     -0.176319
  O      -4.729836      1.675172      1.794903
  H      -4.078247      1.087069      2.198014
  H      -4.205390      2.309942      1.289772
  O      -6.307387     -0.350121     -2.504508
  H      -7.236077     -0.350566     -2.766038
  H      -5.883466      0.332535     -3.039286
33
Coordinates from ORCA-job pb_P1_cplx E -1183.169669846236
  Pb     -5.912695      0.243021      0.015147
  C       3.381923     -0.518007      0.517637
  O       2.067394     -0.129635      0.119057
  C       1.061924     -0.842593      0.632711
  O       1.249197     -1.769457      1.401154
  C      -0.258249     -0.395647      0.175088
  C      -1.380521     -1.084700      0.635861
  C      -2.634562     -0.696377      0.218575
  O      -3.788818     -1.325551      0.608455
  C      -2.821384      0.376307     -0.663325
  O      -3.999822      0.770027     -1.086359
  C      -1.671634      1.055949     -1.105939
  O      -1.851529      2.109988     -1.952292
  C      -0.408756      0.681946     -0.702555
  H       3.499649     -0.421883      1.597533
  H       4.057896      0.163197      0.006248
  H       3.586073     -1.545618      0.214864
  H      -1.269988     -1.922151      1.314807
  H      -3.623643     -1.926325      1.346133
  H      -2.810544      2.187103     -2.084499
  H       0.450530      1.229877     -1.066351
  O      -4.699229     -2.675526     -1.932248
  H      -5.242572     -1.931758     -2.236601
  H      -4.370612     -2.378873     -1.073251
  O      -6.158517      2.552369     -0.893304
  H      -5.236006      2.733810     -1.124992
  H      -6.364657      3.164546     -0.175482
  O      -4.727638      1.676859      1.792351
  H      -4.071635      1.093296      2.194753
  H      -4.207904      2.314452      1.285816
  O      -6.308924     -0.348790     -2.505312
  H      -7.238854     -0.349739     -2.762267
  H      -5.888073      0.334568     -3.041486
33
Coordinates from ORCA-job pb_P1_cplx E -1183.169694928230
  Pb     -5.911913      0.242068      0.015981
  C       3.382493     -0.516722      0.519324
  O       2.067862     -0.128806      0.120629
  C       1.062634     -0.842759      0.633265
  O       1.250158     -1.770208      1.400951
  C      -0.257696     -0.396184      0.175548
  C      -1.379737     -1.085564      0.636589
  C      -2.633755     -0.697523      0.219064
  O      -3.788129     -1.326599      0.608992
  C      -2.820802      0.374802     -0.663312
  O      -3.999375      0.767785     -1.086567
  C      -1.671302      1.054679     -1.106123
  O      -1.851333      2.108153     -1.953037
  C      -0.408385      0.681055     -0.702370
  H       3.499354     -0.422377      1.599469
  H       4.058204      0.165976      0.009594
  H       3.587714     -1.543622      0.214854
  H      -1.269044     -1.922801      1.315742
  H      -3.622970     -1.927703      1.346402
  H      -2.810369      2.185495     -2.084932
  H       0.451018      1.228855     -1.066087
  O      -4.700305     -2.672782     -1.935338
  H      -5.244257     -1.929095     -2.238998
  H      -4.371235     -2.376935     -1.076274
  O      -6.158255      2.550829     -0.893456
  H      -5.236218      2.731721     -1.127154
  H      -6.362966      3.163671     -0.175842
  O      -4.725886      1.676957      1.790867
  H      -4.067640      1.095954      2.193281
  H      -4.208473      2.315468      1.283083
  O      -6.311871     -0.347627     -2.505598
  H      -7.243433     -0.350053     -2.756508
  H      -5.896267      0.338578     -3.042114
33
Coordinates from ORCA-job pb_P1_cplx E -1183.169675481334
  Pb     -5.910723      0.240097      0.017407
  C       3.383159     -0.514674      0.522514
  O       2.068408     -0.127131      0.123772
  C       1.063506     -0.842940      0.634356
  O       1.251364     -1.771588      1.400505
  C      -0.256979     -0.396951      0.176299
  C      -1.378783     -1.086611      0.637722
  C      -2.632727     -0.699132      0.219564
  O      -3.787219     -1.328182      0.609424
  C      -2.820115      0.372360     -0.663783
  O      -3.998912      0.764026     -1.087420
  C      -1.670872      1.052303     -1.106994
  O      -1.850784      2.104771     -1.955106
  C      -0.407915      0.679419     -0.702497
  H       3.498527     -0.424567      1.603169
  H       4.058443      0.170981      0.016227
  H       3.590079     -1.540116      0.214250
  H      -1.268028     -1.923318      1.317477
  H      -3.622366     -1.929324      1.346859
  H      -2.809741      2.182308     -2.087266
  H       0.451475      1.227120     -1.066408
  O      -4.700146     -2.667974     -1.941139
  H      -5.245638     -1.924436     -2.242381
  H      -4.369920     -2.373621     -1.081979
  O      -6.157030      2.548590     -0.893904
  H      -5.235394      2.727830     -1.130109
  H      -6.359514      3.162376     -0.176496
  O      -4.723068      1.676723      1.789037
  H      -4.060434      1.099786      2.190036
  H      -4.210397      2.317264      1.278991
  O      -6.317260     -0.345895     -2.505316
  H      -7.251614     -0.351263     -2.745430
  H      -5.911562      0.346453     -3.041456
33
Coordinates from ORCA-job pb_P1_cplx E -1183.169649756287
  Pb     -5.910610      0.238674      0.017726
  C       3.383540     -0.515285      0.522441
  O       2.068736     -0.127364      0.124229
  C       1.063857     -0.843237      0.634800
  O       1.251802     -1.772145      1.400603
  C      -0.256631     -0.397098      0.176942
  C      -1.378470     -1.086557      0.638616
  C      -2.632384     -0.699129      0.220295
  O      -3.786814     -1.328392      0.609975
  C      -2.819914      0.372213     -0.663198
  O      -3.998778      0.763509     -1.086800
  C      -1.670606      1.051876     -1.106611
  O      -1.850153      2.104200     -1.955045
  C      -0.407620      0.678957     -0.702202
  H       3.498789     -0.427416      1.603284
  H       4.058668      0.171458      0.017448
  H       3.590615     -1.540151      0.212294
  H      -1.267847     -1.923130      1.318556
  H      -3.622037     -1.930059      1.346993
  H      -2.808969      2.181811     -2.087914
  H       0.451666      1.226555     -1.066522
  O      -4.698207     -2.666572     -1.943198
  H      -5.244331     -1.923170     -2.243590
  H      -4.367863     -2.372778     -1.083844
  O      -6.157931      2.547483     -0.894580
  H      -5.236515      2.726826     -1.131409
  H      -6.360056      3.160987     -0.176902
  O      -4.724507      1.676794      1.789093
  H      -4.057218      1.103216      2.187247
  H      -4.217129      2.320480      1.277754
  O      -6.317509     -0.345797     -2.505036
  H      -7.252837     -0.351167     -2.741398
  H      -5.914917      0.349093     -3.040120
33
Coordinates from ORCA-job pb_P1_cplx E -1183.169680475173
  Pb     -5.909997      0.235019      0.018224
  C       3.384383     -0.517934      0.521764
  O       2.069646     -0.129114      0.124128
  C       1.064541     -0.844044      0.635718
  O       1.252345     -1.772720      1.401813
  C      -0.255801     -0.397444      0.178124
  C      -1.377856     -1.086553      0.639644
  C      -2.631708     -0.699176      0.221013
  O      -3.785862     -1.329263      0.609997
  C      -2.819456      0.372338     -0.662159
  O      -3.998399      0.763251     -1.085656
  C      -1.669854      1.051643     -1.105309
  O      -1.848459      2.104334     -1.953724
  C      -0.406831      0.678512     -0.701213
  H       3.499525     -0.433467      1.602866
  H       4.059485      0.170134      0.018575
  H       3.591336     -1.542062      0.208950
  H      -1.267571     -1.923182      1.319594
  H      -3.621265     -1.931672      1.346448
  H      -2.806919      2.181802     -2.088698
  H       0.452043      1.226348     -1.066151
  O      -4.693304     -2.665718     -1.946443
  H      -5.240477     -1.922484     -2.245128
  H      -4.362771     -2.372910     -1.086771
  O      -6.161844      2.545080     -0.894818
  H      -5.241034      2.726191     -1.132544
  H      -6.363652      3.156454     -0.175287
  O      -4.728566      1.678007      1.789110
  H      -4.047919      1.113732      2.177964
  H      -4.237225      2.331176      1.274210
  O      -6.316829     -0.346065     -2.504131
  H      -7.253603     -0.349656     -2.734902
  H      -5.918285      0.354125     -3.035283
33
Coordinates from ORCA-job pb_P1_cplx E -1183.169696639955
  Pb     -5.909660      0.232988      0.018399
  C       3.384887     -0.520411      0.520462
  O       2.070241     -0.131041      0.123054
  C       1.064904     -0.844942      0.635771
  O       1.252553     -1.773178      1.402434
  C      -0.255308     -0.397812      0.178603
  C      -1.377530     -1.086907      0.639573
  C      -2.631393     -0.699310      0.221159
  O      -3.785325     -1.329994      0.609591
  C      -2.819216      0.372941     -0.661100
  O      -3.998186      0.764009     -1.084364
  C      -1.669433      1.052346     -1.103592
  O      -1.847613      2.106008     -1.951066
  C      -0.406376      0.678795     -0.700027
  H       3.500422     -0.436265      1.601540
  H       4.060134      0.167373      0.017090
  H       3.591284     -1.544638      0.207553
  H      -1.267406     -1.924013      1.318984
  H      -3.620734     -1.933245      1.345351
  H      -2.805886      2.183257     -2.087204
  H       0.452149      1.227108     -1.065067
  O      -4.690114     -2.666852     -1.947105
  H      -5.237412     -1.923579     -2.245231
  H      -4.359938     -2.374428     -1.087162
  O      -6.164934      2.543734     -0.895019
  H      -5.244345      2.726250     -1.132493
  H      -6.366950      3.153553     -0.174199
  O      -4.732317      1.679641      1.789563
  H      -4.041439      1.122594      2.170617
  H      -4.253739      2.340301      1.272215
  O      -6.314986     -0.346714     -2.503302
  H      -7.251902     -0.348772     -2.733706
  H      -5.916615      0.355888     -3.031396
33
Coordinates from ORCA-job pb_P1_cplx E -1183.169686155980
  Pb     -5.908847      0.230933      0.018454
  C       3.385576     -0.523933      0.518831
  O       2.071181     -0.134286      0.120928
  C       1.065410     -0.846400      0.635475
  O       1.252698     -1.773515      1.403600
  C      -0.254576     -0.398614      0.178708
  C      -1.377008     -1.087988      0.638488
  C      -2.630943     -0.699944      0.220739
  O      -3.784605     -1.331245      0.608505
  C      -2.818697      0.373769     -0.659825
  O      -3.997681      0.765546     -1.082651
  C      -1.668745      1.053744     -1.100994
  O      -1.846822      2.109186     -1.946458
  C      -0.405649      0.679513     -0.698221
  H       3.501922     -0.436585      1.599573
  H       4.061342      0.161593      0.013050
  H       3.590831     -1.549272      0.208869
  H      -1.266944     -1.926075      1.316730
  H      -3.619956     -1.935652      1.343312
  H      -2.805010      2.186029     -2.083344
  H       0.452409      1.228771     -1.062927
  O      -4.686149     -2.669192     -1.947355
  H      -5.233426     -1.925821     -2.245009
  H      -4.357072     -2.377372     -1.086866
  O      -6.169700      2.542191     -0.894782
  H      -5.249328      2.727155     -1.131348
  H      -6.372203      3.149802     -0.172059
  O      -4.736580      1.682825      1.789881
  H      -4.032501      1.135038      2.159994
  H      -4.275427      2.353144      1.269285
  O      -6.312861     -0.347519     -2.501938
  H      -7.249302     -0.348761     -2.734644
  H      -5.913518      0.357616     -3.026075
33
Coordinates from ORCA-job pb_P1_cplx E -1183.169690119544
  Pb     -5.908226      0.229081      0.018397
  C       3.386313     -0.526790      0.517172
  O       2.072014     -0.136504      0.119676
  C       1.066029     -0.847885      0.634928
  O       1.253177     -1.774913      1.403211
  C      -0.253878     -0.399300      0.178948
  C      -1.376354     -1.089215      0.637679
  C      -2.630349     -0.700628      0.220672
  O      -3.783902     -1.332418      0.607764
  C      -2.818088      0.374455     -0.658307
  O      -3.997052      0.766731     -1.080817
  C      -1.668107      1.055129     -1.098315
  O      -1.846309      2.112003     -1.942042
  C      -0.404970      0.680284     -0.696226
  H       3.503639     -0.437581      1.597666
  H       4.062405      0.157230      0.009768
  H       3.590481     -1.552804      0.208776
  H      -1.266274     -1.928360      1.314631
  H      -3.619147     -1.938026      1.341570
  H      -2.804498      2.188604     -2.079074
  H       0.452811      1.230301     -1.060431
  O      -4.683651     -2.671376     -1.947136
  H      -5.230669     -1.927925     -2.244810
  H      -4.355314     -2.379652     -1.086372
  O      -6.172843      2.540737     -0.894925
  H      -5.252663      2.727316     -1.130976
  H      -6.375433      3.146832     -0.170875
  O      -4.741407      1.685361      1.790472
  H      -4.024585      1.147583      2.150122
  H      -4.297000      2.365347      1.267663
  O      -6.310817     -0.348335     -2.500977
  H      -7.246843     -0.348979     -2.735509
  H      -5.910674      0.358382     -3.022397
33
Coordinates from ORCA-job pb_P1_cplx E -1183.169687097754
  Pb     -5.906910      0.230243      0.016974
  C       3.386905     -0.528110      0.516238
  O       2.072757     -0.137864      0.118695
  C       1.066689     -0.849968      0.632696
  O       1.253717     -1.777660      1.400310
  C      -0.253304     -0.400619      0.177632
  C      -1.375353     -1.092705      0.634111
  C      -2.629603     -0.702966      0.219178
  O      -3.783473     -1.334232      0.605981
  C      -2.816704      0.374737     -0.657038
  O      -3.995468      0.768787     -1.079234
  C      -1.667294      1.057882     -1.094856
  O      -1.847889      2.116800     -1.935136
  C      -0.404173      0.682326     -0.693270
  H       3.506901     -0.427126      1.595484
  H       4.063958      0.149274      0.001145
  H       3.588496     -1.557278      0.217269
  H      -1.264434     -1.934096      1.308137
  H      -3.618144     -1.941510      1.338324
  H      -2.806901      2.193037     -2.067892
  H       0.453793      1.233681     -1.054979
  O      -4.686496     -2.676586     -1.943442
  H      -5.231863     -1.932903     -2.243498
  H      -4.360526     -2.384048     -1.082268
  O      -6.173962      2.540585     -0.894132
  H      -5.253473      2.728610     -1.128606
  H      -6.376157      3.146377     -0.169241
  O      -4.743758      1.690019      1.790574
  H      -4.017241      1.157267      2.139143
  H      -4.313688      2.379356      1.268531
  O      -6.310129     -0.348864     -2.500259
  H      -7.243523     -0.353048     -2.745084
  H      -5.904931      0.355288     -3.021563
33
Coordinates from ORCA-job pb_P1_cplx E -1183.169697200708
  Pb     -5.906936      0.226196      0.018035
  C       3.387705     -0.529655      0.515619
  O       2.073384     -0.138320      0.119569
  C       1.067457     -0.850732      0.633444
  O       1.254726     -1.779242      1.399957
  C      -0.252616     -0.401074      0.178868
  C      -1.374717     -1.092702      0.635943
  C      -2.628924     -0.703067      0.220626
  O      -3.782567     -1.335129      0.607081
  C      -2.816557      0.374282     -0.655751
  O      -3.995437      0.767691     -1.077667
  C      -1.666960      1.056734     -1.094106
  O      -1.846635      2.115420     -1.935043
  C      -0.403729      0.681117     -0.692928
  H       3.507277     -0.435497      1.595494
  H       4.064270      0.151124      0.004437
  H       3.589781     -1.557097      0.210871
  H      -1.264104     -1.933764      1.310410
  H      -3.617161     -1.943175      1.338752
  H      -2.805298      2.191795     -2.069652
  H       0.454007      1.232271     -1.055486
  O      -4.683760     -2.675396     -1.946301
  H      -5.229542     -1.931532     -2.245202
  H      -4.356363     -2.383310     -1.085361
  O      -6.176334      2.538612     -0.893337
  H      -5.256556      2.726973     -1.129696
  H      -6.377456      3.142702     -0.167079
  O      -4.748138      1.688780      1.790649
  H      -4.006967      1.170877      2.128912
  H      -4.336964      2.388684      1.266568
  O      -6.308168     -0.348593     -2.500110
  H      -7.243173     -0.349092     -2.738708
  H      -5.905727      0.358806     -3.018883
33
Coordinates from ORCA-job pb_P1_cplx E -1183.169715113281
  Pb     -5.906898      0.224521      0.018369
  C       3.387993     -0.529188      0.516002
  O       2.073460     -0.137038      0.121364
  C       1.067832     -0.851178      0.633335
  O       1.255407     -1.781352      1.397728
  C      -0.252393     -0.401424      0.179062
  C      -1.374378     -1.092992      0.636583
  C      -2.628603     -0.703357      0.221176
  O      -3.782242     -1.335573      0.607715
  C      -2.816463      0.373669     -0.655402
  O      -3.995357      0.766899     -1.077168
  C      -1.666897      1.055875     -1.094283
  O      -1.846576      2.114084     -1.935771
  C      -0.403616      0.680351     -0.693194
  H       3.507604     -0.438903      1.596196
  H       4.064183      0.153577      0.007005
  H       3.590217     -1.555576      0.207752
  H      -1.263760     -1.933844      1.311280
  H      -3.616628     -1.943914      1.339088
  H      -2.805237      2.190597     -2.070275
  H       0.454208      1.231242     -1.055948
  O      -4.685513     -2.676002     -1.946336
  H      -5.230822     -1.931839     -2.245501
  H      -4.356300     -2.383224     -1.086245
  O      -6.176143      2.538140     -0.892060
  H      -5.256583      2.725392     -1.130039
  H      -6.375536      3.141998     -0.165233
  O      -4.749636      1.686847      1.791194
  H      -3.999656      1.176738      2.122033
  H      -4.350561      2.395094      1.268859
  O      -6.306790     -0.348155     -2.500922
  H      -7.242407     -0.345983     -2.736997
  H      -5.904091      0.359204     -3.019441
33
Coordinates from ORCA-job pb_P1_cplx E -1183.169705464983
  Pb     -5.908122      0.224032      0.019106
  C       3.388135     -0.527366      0.516466
  O       2.073107     -0.133971      0.124462
  C       1.068194     -0.851537      0.632720
  O       1.256438     -1.784909      1.392982
  C      -0.252477     -0.401718      0.179121
  C      -1.374124     -1.092984      0.638187
  C      -2.628402     -0.703157      0.222884
  O      -3.782289     -1.335007      0.610282
  C      -2.816684      0.372766     -0.654633
  O      -3.995587      0.765900     -1.075987
  C      -1.667325      1.054284     -1.095362
  O      -1.847480      2.110909     -1.938455
  C      -0.403978      0.678939     -0.694404
  H       3.507804     -0.443688      1.597175
  H       4.063513      0.158933      0.011207
  H       3.590680     -1.551886      0.202186
  H      -1.263395     -1.933229      1.313560
  H      -3.616069     -1.942656      1.342087
  H      -2.806349      2.188062     -2.071298
  H       0.454527      1.228624     -1.057394
  O      -4.688733     -2.674244     -1.945689
  H      -5.233663     -1.929821     -2.245458
  H      -4.356550     -2.380272     -1.087032
  O      -6.173307      2.538188     -0.891752
  H      -5.253412      2.721347     -1.131528
  H      -6.370073      3.143614     -0.165699
  O      -4.751003      1.682064      1.794178
  H      -3.992896      1.177272      2.115377
  H      -4.362815      2.401066      1.278542
  O      -6.305607     -0.347181     -2.503118
  H      -7.241590     -0.344634     -2.737218
  H      -5.902649      0.356942     -3.025568
33
Coordinates from ORCA-job pb_P1_cplx E -1183.169709946225
  Pb     -5.907323      0.223222      0.019447
  C       3.388714     -0.528514      0.516245
  O       2.073738     -0.134969      0.124236
  C       1.068805     -0.852857      0.631922
  O       1.257009     -1.786741      1.391598
  C      -0.251926     -0.402652      0.178847
  C      -1.373396     -1.094604      0.637244
  C      -2.627764     -0.704256      0.222783
  O      -3.781722     -1.336089      0.610128
  C      -2.815963      0.372585     -0.653704
  O      -3.994886      0.766418     -1.074735
  C      -1.666802      1.054896     -1.093834
  O      -1.847725      2.112224     -1.935743
  C      -0.403458      0.679212     -0.693203
  H       3.508826     -0.442596      1.596745
  H       4.064326      0.156545      0.009597
  H       3.590723     -1.553624      0.203673
  H      -1.262295     -1.935654      1.311558
  H      -3.615342     -1.943344      1.342233
  H      -2.806854      2.189340     -2.067118
  H       0.455292      1.229133     -1.055260
  O      -4.688491     -2.674483     -1.946216
  H      -5.233282     -1.929764     -2.245623
  H      -4.356632     -2.381391     -1.087242
  O      -6.174658      2.536780     -0.890868
  H      -5.254672      2.719797     -1.130664
  H      -6.370546      3.141862     -0.164146
  O      -4.752463      1.683872      1.794607
  H      -3.984992      1.186584      2.105242
  H      -4.378698      2.411349      1.280296
  O      -6.305736     -0.347124     -2.502904
  H      -7.241145     -0.347236     -2.739323
  H      -5.902844      0.356761     -3.025893
33
Coordinates from ORCA-job pb_P1_cplx E -1183.169714528166
  Pb     -5.907337      0.223734      0.020217
  C       3.388669     -0.529561      0.515722
  O       2.073760     -0.135782      0.123558
  C       1.068743     -0.853958      0.630558
  O       1.256799     -1.788573      1.389396
  C      -0.252001     -0.403188      0.178061
  C      -1.373431     -1.095137      0.636493
  C      -2.627847     -0.703934      0.223006
  O      -3.781939     -1.335310      0.610859
  C      -2.815879      0.373511     -0.652849
  O      -3.994877      0.768438     -1.073009
  C      -1.666744      1.055806     -1.093217
  O      -1.847981      2.113544     -1.934430
  C      -0.403471      0.679410     -0.693159
  H       3.508425     -0.443831      1.596278
  H       4.064405      0.155645      0.009443
  H       3.590699     -1.554579      0.202924
  H      -1.262026     -1.936650      1.310198
  H      -3.615571     -1.940872      1.344368
  H      -2.807275      2.191077     -2.064566
  H       0.455966      1.228653     -1.054646
  O      -4.688437     -2.673884     -1.945488
  H      -5.232994     -1.928809     -2.244719
  H      -4.357188     -2.381897     -1.085946
  O      -6.174811      2.535719     -0.889798
  H      -5.254359      2.716702     -1.129561
  H      -6.369555      3.140980     -0.162791
  O      -4.753066      1.683828      1.798116
  H      -3.977185      1.189501      2.093675
  H      -4.392659      2.421541      1.289553
  O      -6.304393     -0.347716     -2.503350
  H      -7.238401     -0.352630     -2.745147
  H      -5.900223      0.352907     -3.029823
33
Coordinates from ORCA-job pb_P1_cplx E -1183.169717525449
  Pb     -5.907624      0.222902      0.020981
  C       3.389095     -0.531556      0.514044
  O       2.074156     -0.137273      0.122480
  C       1.069106     -0.855148      0.629901
  O       1.257165     -1.789973      1.388459
  C      -0.251663     -0.403655      0.178243
  C      -1.373148     -1.095612      0.636485
  C      -2.627627     -0.703920      0.223634
  O      -3.781650     -1.335508      0.611253
  C      -2.815787      0.374230     -0.651343
  O      -3.994841      0.769383     -1.071004
  C      -1.666592      1.056590     -1.091434
  O      -1.847610      2.115146     -1.931732
  C      -0.403256      0.679632     -0.692120
  H       3.509011     -0.447303      1.594693
  H       4.064794      0.154210      0.008481
  H       3.591007     -1.556235      0.200018
  H      -1.261837     -1.937690      1.309511
  H      -3.615277     -1.941446      1.344449
  H      -2.806790      2.192824     -2.062391
  H       0.456045      1.229045     -1.053659
  O      -4.685674     -2.673609     -1.945512
  H      -5.230440     -1.928644     -2.244603
  H      -4.355114     -2.381789     -1.085669
  O      -6.175541      2.534562     -0.890747
  H      -5.254768      2.714696     -1.129942
  H      -6.370085      3.139675     -0.163590
  O      -4.757152      1.684641      1.800177
  H      -3.973118      1.198379      2.086329
  H      -4.409227      2.429406      1.292768
  O      -6.302735     -0.348602     -2.502911
  H      -7.236367     -0.354811     -2.746062
  H      -5.898636      0.352138     -3.029260
33
Coordinates from ORCA-job pb_P1_cplx E -1183.169722383017
  Pb     -5.907771      0.221461      0.022576
  C       3.389715     -0.534227      0.511927
  O       2.074785     -0.139556      0.120697
  C       1.069625     -0.856456      0.629429
  O       1.257604     -1.790992      1.388309
  C      -0.251095     -0.404109      0.178601
  C      -1.372829     -1.095627      0.636790
  C      -2.627316     -0.703493      0.224395
  O      -3.781184     -1.335393      0.611611
  C      -2.815727      0.375288     -0.649809
  O      -3.994933      0.770369     -1.068825
  C      -1.666259      1.057261     -1.089644
  O      -1.846146      2.116784     -1.929169
  C      -0.402840      0.679616     -0.691225
  H       3.509063     -0.453800      1.592908
  H       4.065288      0.153429      0.008799
  H       3.592250     -1.557884      0.194833
  H      -1.261873     -1.938142      1.309342
  H      -3.615231     -1.941855      1.344454
  H      -2.804873      2.194921     -2.062055
  H       0.456007      1.229288     -1.053428
  O      -4.682120     -2.673109     -1.946224
  H      -5.227397     -1.928385     -2.244827
  H      -4.352098     -2.381557     -1.086119
  O      -6.176615      2.532416     -0.891776
  H      -5.255581      2.711223     -1.131135
  H      -6.370480      3.137305     -0.164325
  O      -4.762982      1.685881      1.803526
  H      -3.968943      1.208906      2.076940
  H      -4.431115      2.440054      1.299127
  O      -6.300525     -0.349892     -2.502114
  H      -7.234073     -0.356326     -2.745668
  H      -5.896513      0.351285     -3.027997
33
Coordinates from ORCA-job pb_P1_cplx E -1183.169720223810
  Pb     -5.907940      0.220948      0.023518
  C       3.390180     -0.535726      0.510364
  O       2.075204     -0.140695      0.119727
  C       1.070045     -0.857539      0.628600
  O       1.258091     -1.792521      1.386906
  C      -0.250700     -0.404493      0.178633
  C      -1.372497     -1.096154      0.636493
  C      -2.627004     -0.703398      0.224790
  O      -3.780906     -1.335294      0.611696
  C      -2.815517      0.376289     -0.648374
  O      -3.994836      0.771601     -1.066623
  C      -1.665989      1.058372     -1.087802
  O      -1.845421      2.118830     -1.926277
  C      -0.402525      0.680050     -0.690110
  H       3.509457     -0.457242      1.591492
  H       4.065661      0.152942      0.008501
  H       3.592987     -1.558781      0.191466
  H      -1.261611     -1.939338      1.308225
  H      -3.615144     -1.943076      1.343492
  H      -2.803955      2.197470     -2.059876
  H       0.456124      1.230028     -1.052329
  O      -4.681838     -2.674044     -1.945246
  H      -5.226953     -1.929478     -2.244382
  H      -4.351894     -2.381809     -1.085311
  O      -6.176214      2.530771     -0.893708
  H      -5.254837      2.706961     -1.133789
  H      -6.368305      3.136809     -0.166760
  O      -4.767146      1.685668      1.806936
  H      -3.964234      1.216314      2.067316
  H      -4.449952      2.449419      1.307487
  O      -6.298479     -0.350690     -2.501512
  H      -7.231792     -0.357707     -2.745968
  H      -5.894239      0.350195     -3.027647
33
Coordinates from ORCA-job pb_P1_cplx E -1183.169727986101
  Pb     -5.908226      0.220096      0.024978
  C       3.390961     -0.536694      0.508651
  O       2.075818     -0.141574      0.118817
  C       1.070851     -0.858431      0.628086
  O       1.259199     -1.793742      1.385907
  C      -0.250048     -0.404941      0.179051
  C      -1.371774     -1.096967      0.636670
  C      -2.626316     -0.703830      0.225537
  O      -3.780332     -1.335735      0.612028
  C      -2.815108      0.376546     -0.646829
  O      -3.994594      0.771654     -1.064463
  C      -1.665686      1.058977     -1.085866
  O      -1.844830      2.120035     -1.923619
  C      -0.402121      0.680279     -0.688705
  H       3.510444     -0.459680      1.589857
  H       4.066178      0.152909      0.007694
  H       3.594135     -1.559187      0.188162
  H      -1.260845     -1.940745      1.307640
  H      -3.614720     -1.945483      1.342224
  H      -2.803215      2.199215     -2.057645
  H       0.456127      1.230841     -1.050985
  O      -4.682230     -2.674007     -1.944943
  H      -5.227410     -1.929658     -2.244480
  H      -4.351572     -2.380819     -1.085617
  O      -6.174611      2.528085     -0.897292
  H      -5.252693      2.700300     -1.138512
  H      -6.364164      3.136895     -0.172041
  O      -4.772639      1.685750      1.810268
  H      -3.962257      1.222816      2.059524
  H      -4.468472      2.458637      1.317211
  O      -6.297300     -0.350545     -2.500767
  H      -7.230895     -0.357445     -2.744156
  H      -5.893838      0.351134     -3.026460
33
Coordinates from ORCA-job pb_P1_cplx E -1183.169724152199
  Pb     -5.907972      0.218657      0.025226
  C       3.391742     -0.537026      0.507981
  O       2.076466     -0.141976      0.118634
  C       1.071682     -0.859073      0.627879
  O       1.260314     -1.794615      1.385378
  C      -0.249381     -0.405655      0.179250
  C      -1.370890     -1.098193      0.636761
  C      -2.625490     -0.704853      0.226059
  O      -3.779638     -1.336631      0.612503
  C      -2.814379      0.375901     -0.645872
  O      -3.993963      0.771250     -1.063045
  C      -1.665203      1.058776     -1.084875
  O      -1.844891      2.119946     -1.922266
  C      -0.401590      0.679973     -0.687913
  H       3.512133     -0.457865      1.588944
  H       4.066874      0.151483      0.005376
  H       3.594354     -1.560067      0.188978
  H      -1.259575     -1.942266      1.307273
  H      -3.613767     -1.947987      1.341305
  H      -2.803488      2.199281     -2.055004
  H       0.456692      1.230759     -1.049777
  O      -4.683608     -2.674637     -1.945306
  H      -5.228516     -1.930146     -2.245129
  H      -4.352064     -2.380994     -1.086446
  O      -6.174116      2.526575     -0.898071
  H      -5.252133      2.696674     -1.140621
  H      -6.361054      3.136726     -0.173272
  O      -4.776001      1.684613      1.812033
  H      -3.956853      1.231376      2.050016
  H      -4.487215      2.466518      1.323787
  O      -6.296595     -0.349445     -2.500926
  H      -7.230475     -0.355590     -2.743295
  H      -5.893584      0.353194     -3.025643
33
Coordinates from ORCA-job pb_P1_cplx E -1183.169699573323
  Pb     -5.908560      0.218268      0.024992
  C       3.391965     -0.537668      0.506519
  O       2.076635     -0.142746      0.117318
  C       1.071854     -0.858901      0.627918
  O       1.260570     -1.793662      1.386374
  C      -0.249275     -0.405532      0.179452
  C      -1.370786     -1.097841      0.637417
  C      -2.625371     -0.704386      0.226851
  O      -3.779656     -1.335806      0.613441
  C      -2.814296      0.376273     -0.645202
  O      -3.993922      0.771764     -1.061995
  C      -1.665150      1.058820     -1.084718
  O      -1.844862      2.119766     -1.922397
  C      -0.401499      0.679854     -0.687970
  H       3.513115     -0.456502      1.587253
  H       4.067088      0.149667      0.002284
  H       3.594001     -1.561323      0.189149
  H      -1.259414     -1.941771      1.308091
  H      -3.613704     -1.948635      1.340989
  H      -2.803525      2.199396     -2.054575
  H       0.456693      1.230550     -1.050177
  O      -4.682439     -2.674584     -1.944848
  H      -5.227526     -1.930455     -2.245181
  H      -4.351192     -2.380130     -1.086108
  O      -6.173639      2.525970     -0.900157
  H      -5.251496      2.695084     -1.142947
  H      -6.360031      3.137794     -0.176609
  O      -4.779690      1.683721      1.813956
  H      -3.960839      1.229245      2.051525
  H      -4.490567      2.466774      1.328188
  O      -6.295125     -0.349058     -2.501386
  H      -7.229226     -0.354020     -2.742898
  H      -5.892314      0.354755     -3.024624
33
Coordinates from ORCA-job pb_P1_cplx E -1183.169727535912
  Pb     -5.908606      0.217672      0.024901
  C       3.391963     -0.537486      0.506593
  O       2.076620     -0.142827      0.117087
  C       1.071859     -0.858587      0.628257
  O       1.260600     -1.792764      1.387428
  C      -0.249301     -0.405580      0.179495
  C      -1.370758     -1.097674      0.637882
  C      -2.625378     -0.704486      0.227136
  O      -3.779623     -1.335850      0.613969
  C      -2.814335      0.375741     -0.645344
  O      -3.993969      0.771251     -1.062234
  C      -1.665257      1.058073     -1.085365
  O      -1.845289      2.118528     -1.923599
  C      -0.401573      0.679369     -0.688518
  H       3.513299     -0.455030      1.587207
  H       4.067069      0.149140      0.001374
  H       3.593757     -1.561575      0.190479
  H      -1.259245     -1.941230      1.309005
  H      -3.613456     -1.948566      1.341559
  H      -2.804077      2.197929     -2.055188
  H       0.456671      1.229854     -1.050923
  O      -4.681448     -2.673695     -1.945692
  H      -5.226778     -1.929588     -2.245713
  H      -4.350455     -2.379609     -1.086736
  O      -6.173423      2.525885     -0.899670
  H      -5.251277      2.694961     -1.142442
  H      -6.359745      3.137844     -0.176222
  O      -4.779987      1.683207      1.813833
  H      -3.961563      1.228350      2.052011
  H      -4.490137      2.465792      1.327748
  O      -6.295484     -0.348354     -2.501899
  H      -7.229754     -0.352710     -2.742707
  H      -5.893100      0.356698     -3.023785
33
Coordinates from ORCA-job pb_P1_cplx E -1183.169720994739
  Pb     -5.908919      0.216280      0.024854
  C       3.391992     -0.538311      0.505580
  O       2.076607     -0.143614      0.116014
  C       1.071796     -0.858215      0.628678
  O       1.260482     -1.791273      1.389242
  C      -0.249401     -0.405497      0.179727
  C      -1.370826     -1.096958      0.639050
  C      -2.625519     -0.703984      0.228247
  O      -3.779654     -1.335217      0.615602
  C      -2.814509      0.375645     -0.644756
  O      -3.994154      0.771506     -1.061552
  C      -1.665477      1.057339     -1.085911
  O      -1.846046      2.117088     -1.924971
  C      -0.401726      0.678769     -0.689267
  H       3.514098     -0.453614      1.585931
  H       4.067122      0.146719     -0.001752
  H       3.592739     -1.563308      0.191761
  H      -1.259047     -1.939941      1.310866
  H      -3.613075     -1.947649      1.343327
  H      -2.805045      2.196027     -2.055611
  H       0.456758      1.228526     -1.052205
  O      -4.677844     -2.671870     -1.946962
  H      -5.223674     -1.927879     -2.246401
  H      -4.348201     -2.378749     -1.087133
  O      -6.174724      2.524763     -0.899289
  H      -5.252805      2.694519     -1.142351
  H      -6.361477      3.137058     -0.176258
  O      -4.781756      1.682974      1.814123
  H      -3.964401      1.227222      2.053764
  H      -4.489939      2.463787      1.326171
  O      -6.294665     -0.347191     -2.502897
  H      -7.228893     -0.350119     -2.743878
  H      -5.891999      0.359853     -3.021822
33
Coordinates from ORCA-job pb_P1_cplx E -1183.169719017650
  Pb     -5.909123      0.215503      0.025032
  C       3.392174     -0.538704      0.504737
  O       2.076724     -0.144071      0.115244
  C       1.071957     -0.858097      0.628787
  O       1.260721     -1.790585      1.390025
  C      -0.249308     -0.405488      0.179925
  C      -1.370653     -1.096706      0.639750
  C      -2.625455     -0.703854      0.229086
  O      -3.779465     -1.335062      0.616781
  C      -2.814561      0.375557     -0.644094
  O      -3.994251      0.771510     -1.060770
  C      -1.665592      1.057029     -1.085774
  O      -1.846470      2.116580     -1.925057
  C      -0.401759      0.678512     -0.689429
  H       3.514596     -0.453293      1.584994
  H       4.067232      0.145805     -0.003369
  H       3.592576     -1.564019      0.191729
  H      -1.258685     -1.939462      1.311815
  H      -3.612593     -1.947540      1.344397
  H      -2.805538      2.195200     -2.055465
  H       0.456773      1.227957     -1.052734
  O      -4.676648     -2.671160     -1.947369
  H      -5.222574     -1.927253     -2.246835
  H      -4.347704     -2.378339     -1.087163
  O      -6.175498      2.523456     -0.899544
  H      -5.253838      2.693169     -1.143609
  H      -6.362009      3.136614     -0.177197
  O      -4.783368      1.683268      1.814477
  H      -3.966575      1.226882      2.054671
  H      -4.490564      2.463142      1.325551
  O      -6.294073     -0.346158     -2.503422
  H      -7.228211     -0.347437     -2.744794
  H      -5.890416      0.361727     -3.020449
33
Coordinates from ORCA-job pb_P1_cplx E -1183.169720386897
  Pb     -5.909370      0.215174      0.025575
  C       3.392346     -0.538552      0.504291
  O       2.076770     -0.143540      0.115555
  C       1.072191     -0.858605      0.628014
  O       1.261186     -1.792128      1.387917
  C      -0.249180     -0.405714      0.179748
  C      -1.370421     -1.097012      0.639644
  C      -2.625373     -0.703931      0.229563
  O      -3.779262     -1.335111      0.617621
  C      -2.814614      0.375704     -0.643274
  O      -3.994353      0.771836     -1.059642
  C      -1.665714      1.057285     -1.085012
  O      -1.846833      2.117185     -1.923832
  C      -0.401800      0.678632     -0.689159
  H       3.514687     -0.455312      1.584727
  H       4.067180      0.147129     -0.002508
  H       3.592981     -1.563240      0.189360
  H      -1.258312     -1.939986      1.311410
  H      -3.612076     -1.947567      1.345186
  H      -2.805911      2.195529     -2.054340
  H       0.456698      1.228065     -1.052562
  O      -4.677586     -2.672025     -1.945962
  H      -5.223195     -1.928222     -2.246221
  H      -4.348647     -2.378429     -1.085991
  O      -6.176188      2.521760     -0.900185
  H      -5.254980      2.690588     -1.146597
  H      -6.361435      3.136616     -0.178967
  O      -4.784588      1.684181      1.814932
  H      -3.967519      1.227919      2.054173
  H      -4.492279      2.463835      1.325256
  O      -6.293142     -0.345524     -2.503537
  H      -7.226898     -0.343788     -2.746379
  H      -5.886542      0.361931     -3.018877
33
Coordinates from ORCA-job pb_P1_cplx E -1183.169742186987
  Pb     -5.909692      0.215327      0.026814
  C       3.392497     -0.538076      0.504212
  O       2.076745     -0.141866      0.117302
  C       1.072499     -0.859929      0.626207
  O       1.261898     -1.796514      1.382233
  C      -0.249009     -0.406235      0.179199
  C      -1.370162     -1.097722      0.638978
  C      -2.625300     -0.703988      0.230021
  O      -3.779072     -1.335055      0.618601
  C      -2.814736      0.376245     -0.642076
  O      -3.994552      0.772643     -1.057776
  C      -1.665864      1.057986     -1.083741
  O      -1.847058      2.118533     -1.921734
  C      -0.401859      0.678922     -0.688636
  H       3.514630     -0.460053      1.585062
  H       4.067032      0.150397      0.000824
  H       3.593665     -1.561139      0.184362
  H      -1.258010     -1.941283      1.310005
  H      -3.611460     -1.947680      1.345927
  H      -2.806058      2.196838     -2.052670
  H       0.456501      1.228450     -1.052205
  O      -4.679672     -2.673810     -1.942798
  H      -5.224819     -1.930353     -2.244687
  H      -4.350383     -2.378429     -1.083544
  O      -6.178266      2.519470     -0.901436
  H      -5.257971      2.687255     -1.151989
  H      -6.361211      3.137036     -0.181949
  O      -4.785382      1.685815      1.815692
  H      -3.967556      1.229985      2.053092
  H      -4.494467      2.465498      1.325192
  O      -6.291391     -0.345310     -2.503057
  H      -7.224374     -0.338530     -2.748844
  H      -5.879324      0.360257     -3.016652
33
Coordinates from ORCA-job pb_P1_cplx E -1183.169732954774
  Pb     -5.909461      0.215591      0.026627
  C       3.392350     -0.537995      0.504701
  O       2.076682     -0.142386      0.116991
  C       1.072306     -0.859437      0.627095
  O       1.261550     -1.794885      1.384571
  C      -0.249116     -0.406110      0.179486
  C      -1.370347     -1.097538      0.639206
  C      -2.625392     -0.704118      0.229730
  O      -3.779209     -1.335217      0.618115
  C      -2.814763      0.375865     -0.642761
  O      -3.994561      0.771931     -1.058703
  C      -1.665822      1.057535     -1.084366
  O      -1.846748      2.117796     -1.922762
  C      -0.401882      0.678657     -0.688834
  H       3.514522     -0.457684      1.585383
  H       4.067043      0.149350     -0.000038
  H       3.593450     -1.561700      0.186888
  H      -1.258331     -1.940862      1.310561
  H      -3.611822     -1.947500      1.345779
  H      -2.805672      2.196355     -2.053969
  H       0.456452      1.228230     -1.052397
  O      -4.678760     -2.672449     -1.944662
  H      -5.224390     -1.928951     -2.245551
  H      -4.349747     -2.378132     -1.084969
  O      -6.178129      2.520465     -0.900483
  H      -5.257849      2.688978     -1.150548
  H      -6.361341      3.137221     -0.180358
  O      -4.783548      1.684946      1.815261
  H      -3.966232      1.228272      2.052975
  H      -4.491826      2.464392      1.324940
  O      -6.292644     -0.345464     -2.502905
  H      -7.226014     -0.341056     -2.747330
  H      -5.882931      0.360582     -3.017745
33
Coordinates from ORCA-job pb_P1_cplx E -1183.169750167196
  Pb     -5.909224      0.215791      0.026763
  C       3.392235     -0.537703      0.505205
  O       2.076603     -0.142409      0.117151
  C       1.072208     -0.859252      0.627526
  O       1.261410     -1.794368      1.385418
  C      -0.249181     -0.406084      0.179655
  C      -1.370431     -1.097717      0.639049
  C      -2.625411     -0.704476      0.229288
  O      -3.779300     -1.335717      0.617366
  C      -2.814820      0.375469     -0.643321
  O      -3.994609      0.771163     -1.059517
  C      -1.665867      1.057350     -1.084577
  O      -1.846566      2.117566     -1.923024
  C      -0.401963      0.678646     -0.688680
  H       3.514495     -0.456169      1.585792
  H       4.067015      0.149079     -0.000210
  H       3.593352     -1.561707      0.188383
  H      -1.258575     -1.941101      1.310363
  H      -3.612157     -1.947396      1.345597
  H      -2.805418      2.196487     -2.054395
  H       0.456225      1.228601     -1.052018
  O      -4.678595     -2.671677     -1.945860
  H      -5.224531     -1.928020     -2.245764
  H      -4.349564     -2.378348     -1.085870
  O      -6.177625      2.521043     -0.900010
  H      -5.257490      2.689682     -1.150503
  H      -6.360433      3.137946     -0.179909
  O      -4.782171      1.684488      1.814936
  H      -3.965026      1.227700      2.053048
  H      -4.490199      2.463938      1.324821
  O      -6.293795     -0.345724     -2.502450
  H      -7.227397     -0.342706     -2.745977
  H      -5.885378      0.360307     -3.018350
33
Coordinates from ORCA-job pb_P1_cplx E -1183.169735874641
  Pb     -5.908968      0.216143      0.026934
  C       3.391960     -0.536899      0.506072
  O       2.076374     -0.142382      0.117236
  C       1.071979     -0.858739      0.628325
  O       1.261188     -1.793017      1.387244
  C      -0.249387     -0.406081      0.179889
  C      -1.370621     -1.098097      0.638812
  C      -2.625514     -0.705292      0.228475
  O      -3.779435     -1.336830      0.616145
  C      -2.814994      0.374531     -0.644363
  O      -3.994795      0.769636     -1.060978
  C      -1.666090      1.056841     -1.085056
  O      -1.846524      2.116983     -1.923588
  C      -0.402224      0.678520     -0.688545
  H       3.514211     -0.453267      1.586502
  H       4.066804      0.149032     -0.000446
  H       3.593298     -1.561388      0.190989
  H      -1.258897     -1.941457      1.310169
  H      -3.612521     -1.947774      1.345044
  H      -2.805294      2.196262     -2.055195
  H       0.455771      1.229042     -1.051484
  O      -4.678529     -2.670672     -1.947603
  H      -5.224919     -1.926816     -2.246210
  H      -4.349975     -2.378882     -1.086923
  O      -6.176447      2.521969     -0.898962
  H      -5.256747      2.690340     -1.151151
  H      -6.357800      3.139669     -0.179175
  O      -4.779655      1.683069      1.814633
  H      -3.962241      1.226438      2.052111
  H      -4.488207      2.463144      1.325223
  O      -6.295754     -0.345715     -2.501584
  H      -7.229603     -0.343922     -2.744094
  H      -5.888625      0.360296     -3.018520
33
Coordinates from ORCA-job pb_P1_cplx E -1183.169748039360
  Pb     -5.908991      0.216290      0.027393
  C       3.391855     -0.536433      0.506413
  O       2.076228     -0.142061      0.117566
  C       1.071930     -0.858742      0.628386
  O       1.261248     -1.793140      1.387133
  C      -0.249490     -0.406265      0.179918
  C      -1.370660     -1.098388      0.638863
  C      -2.625563     -0.705717      0.228439
  O      -3.779457     -1.337365      0.616101
  C      -2.815148      0.374005     -0.644513
  O      -3.994978      0.768944     -1.061242
  C      -1.666314      1.056422     -1.085204
  O      -1.846794      2.116464     -1.923836
  C      -0.402428      0.678267     -0.688575
  H       3.513966     -0.453206      1.586890
  H       4.066601      0.149866      0.000261
  H       3.593475     -1.560736      0.190909
  H      -1.258909     -1.941702      1.310272
  H      -3.612531     -1.948015      1.345242
  H      -2.805581      2.195765     -2.055337
  H       0.455524      1.228875     -1.051492
  O      -4.677726     -2.669665     -1.948200
  H      -5.224531     -1.925916     -2.246317
  H      -4.349891     -2.378575     -1.087009
  O      -6.176415      2.521744     -0.899004
  H      -5.257157      2.689818     -1.152997
  H      -6.356642      3.140503     -0.179850
  O      -4.778696      1.682668      1.814759
  H      -3.961220      1.226072      2.052111
  H      -4.487395      2.462877      1.325442
  O      -6.296673     -0.345392     -2.501094
  H      -7.230513     -0.343170     -2.743608
  H      -5.889303      0.360593     -3.017894
33
Coordinates from ORCA-job pb_P1_cplx E -1183.169732063955
  Pb     -5.908935      0.216586      0.028233
  C       3.391644     -0.535288      0.507207
  O       2.075939     -0.141165      0.118289
  C       1.071833     -0.858690      0.628286
  O       1.261349     -1.793531      1.386428
  C      -0.249687     -0.406524      0.179742
  C      -1.370680     -1.099082      0.638443
  C      -2.625646     -0.706654      0.227923
  O      -3.779412     -1.338652      0.615447
  C      -2.815379      0.373098     -0.644917
  O      -3.995257      0.767905     -1.061844
  C      -1.666719      1.055953     -1.085324
  O      -1.847487      2.116092     -1.923782
  C      -0.402773      0.678178     -0.688505
  H       3.513154     -0.453782      1.587873
  H       4.066147      0.152256      0.002437
  H       3.594046     -1.558980      0.190200
  H      -1.258758     -1.942452      1.309754
  H      -3.612542     -1.948667      1.345135
  H      -2.806349      2.194972     -2.055155
  H       0.455123      1.229075     -1.051114
  O      -4.677689     -2.669145     -1.948511
  H      -5.224897     -1.925394     -2.245854
  H      -4.350771     -2.379105     -1.086594
  O      -6.175705      2.521269     -0.899176
  H      -5.257417      2.688313     -1.157234
  H      -6.353254      3.142169     -0.181235
  O      -4.776952      1.682009      1.815047
  H      -3.959066      1.225878      2.051892
  H      -4.486385      2.462512      1.325779
  O      -6.298296     -0.344908     -2.500097
  H      -7.232008     -0.340468     -2.742988
  H      -5.889351      0.360904     -3.015859
33
Coordinates from ORCA-job pb_P1_cplx E -1183.169733411918
  Pb     -5.909045      0.216674      0.028318
  C       3.391713     -0.535322      0.506978
  O       2.075970     -0.141126      0.118222
  C       1.071902     -0.858683      0.628239
  O       1.261475     -1.793567      1.386310
  C      -0.249663     -0.406506      0.179804
  C      -1.370595     -1.099113      0.638586
  C      -2.625614     -0.706749      0.228126
  O      -3.779329     -1.338806      0.615617
  C      -2.815381      0.373016     -0.644661
  O      -3.995272      0.767799     -1.061628
  C      -1.666792      1.055962     -1.085097
  O      -1.847792      2.116152     -1.923466
  C      -0.402808      0.678234     -0.688398
  H       3.513246     -0.454155      1.587668
  H       4.066160      0.152364      0.002337
  H       3.594076     -1.558950      0.189733
  H      -1.258522     -1.942474      1.309874
  H      -3.612522     -1.948938      1.345216
  H      -2.806703      2.194723     -2.054749
  H       0.455129      1.229062     -1.051013
  O      -4.677495     -2.668871     -1.948502
  H      -5.224796     -1.925215     -2.245910
  H      -4.350627     -2.378765     -1.086589
  O      -6.175443      2.521063     -0.899907
  H      -5.257079      2.687681     -1.158008
  H      -6.352802      3.142195     -0.182108
  O      -4.777331      1.682002      1.815454
  H      -3.959205      1.226136      2.052028
  H      -4.487142      2.462797      1.326381
  O      -6.298460     -0.344754     -2.500035
  H      -7.232106     -0.340229     -2.743222
  H      -5.889328      0.361047     -3.015675
33
Coordinates from ORCA-job pb_P1_cplx E -1183.169727337798
  Pb     -5.909046      0.216693      0.028344
  C       3.391796     -0.535090      0.507092
  O       2.076041     -0.140887      0.118324
  C       1.071990     -0.858519      0.628255
  O       1.261594     -1.793438      1.386277
  C      -0.249596     -0.406435      0.179767
  C      -1.370456     -1.099130      0.638588
  C      -2.625542     -0.706931      0.228117
  O      -3.779179     -1.339069      0.615546
  C      -2.815336      0.372815     -0.644667
  O      -3.995247      0.767502     -1.061691
  C      -1.666821      1.055863     -1.085132
  O      -1.848108      2.116052     -1.923499
  C      -0.402797      0.678264     -0.688508
  H       3.513138     -0.454457      1.587841
  H       4.066209      0.152883      0.002813
  H       3.594256     -1.558585      0.189471
  H      -1.258177     -1.942412      1.309928
  H      -3.612541     -1.949254      1.345131
  H      -2.807066      2.194092     -2.054861
  H       0.455189      1.228993     -1.051145
  O      -4.678261     -2.669105     -1.948388
  H      -5.225503     -1.925459     -2.245878
  H      -4.351042     -2.378765     -1.086677
  O      -6.175026      2.521048     -0.900211
  H      -5.256682      2.687239     -1.158692
  H      -6.351843      3.142091     -0.182196
  O      -4.777363      1.681687      1.815840
  H      -3.958693      1.226374      2.051743
  H      -4.488140      2.463074      1.327164
  O      -6.298680     -0.344440     -2.499991
  H      -7.232255     -0.339306     -2.743508
  H      -5.888995      0.361295     -3.015274
