3
Coordinates from ORCA-job water E -76.390635671824
  O       0.000000      0.000000      0.010345
  H       0.000000      0.774553      0.581332
  H       0.000000     -0.774553      0.581332
3
Coordinates from ORCA-job water E -76.390788167933
  O       0.000000     -0.000000      0.004494
  H       0.000000      0.766388      0.584257
  H       0.000000     -0.766388      0.584257
3
Coordinates from ORCA-job water E -76.390851949675
  O       0.000000     -0.000000     -0.003498
  H       0.000000      0.758769      0.588253
  H       0.000000     -0.758769      0.588253
3
Coordinates from ORCA-job water E -76.390863280134
  O       0.000000     -0.000000     -0.003507
  H       0.000000      0.759030      0.588258
  H       0.000000     -0.759030      0.588258
3
Coordinates from ORCA-job water E -76.390850714231
  O       0.000000     -0.000000     -0.003513
  H       0.000000      0.759042      0.588261
  H       0.000000     -0.759042      0.588261
