20
charge=-1 | mult=1 | uhf=0 | uks=false | species=lig_P1_3OH | label=LH- deprotonated at the 3-position | formula=C8H7O5 | role=ligand | protonation=P1 | metal=none | builder=build_structures.py
C      3.85891953    -0.73140870     0.68809792
O      2.59512855    -0.12775439     0.40830260
C      1.55918034    -1.00057114     0.38345264
O      1.63112642    -2.20477660     0.57430525
C      0.28073509    -0.30042835     0.08703001
C     -0.89244184    -1.07682764     0.02716858
C     -2.10916654    -0.46182245    -0.24726908
O     -3.27863930    -1.16566360    -0.31742596
C     -2.16525369     0.91003276    -0.46080358
O     -3.35728267     1.52476938    -0.73149921
C     -1.00865198     1.67623816    -0.40190337
O     -1.07062076     3.02313011    -0.61258880
C      0.21841202     1.08533740    -0.12951766
H      3.84947888    -1.19938292     1.67748705
H      4.61834743     0.05533408     0.68434413
H      4.11381401    -1.46295060    -0.08511239
H     -0.83640546    -2.14924511     0.19592052
H     -4.01279252     0.79684008    -0.72097263
H     -2.01746300     3.20559754    -0.78187890
H      1.10725194     1.70834374    -0.08936497
