20
 energy: -41.357835458250 gnorm: 0.000184770996 xtb: 6.7.1 (edcfbbe)
C            3.86616300014974       -0.74573310922021        0.69185454951833
O            2.60124203617781       -0.14470867024315        0.41096579398857
C            1.53987755644619       -0.96450210824029        0.37464931724029
O            1.66367258074764       -2.16738219964511        0.57365710617156
C            0.27788023748124       -0.29291659235469        0.08469818229178
C           -0.87845299632917       -1.07492788799332        0.02906120070139
C           -2.08561693661968       -0.45652052102336       -0.24360788744492
O           -3.27188437069158       -1.16409780138043       -0.31438244463315
C           -2.16085576939374        0.91239816346940       -0.45983773090307
O           -3.38205481847458        1.48963488246961       -0.72861991568503
C           -0.99795286577809        1.75178167479260       -0.41216309405947
O           -1.05830039345783        3.01168085043861       -0.61003540204249
C            0.21448706086132        1.07823898614593       -0.13005433923372
H            3.83875588766527       -1.23064832365483        1.66893880772699
H            4.58143163416100        0.07044428573733        0.67668501644208
H            4.10041257361822       -1.49223378035600       -0.06872823452874
H           -0.80771628772560       -2.13812827440886        0.19851263029595
H           -3.09122487400716       -2.10119051973714       -0.15425474943692
H           -4.04587846437830        0.77772133416169       -0.72027613055925
H            1.11347820954731        1.67549206104219       -0.08518378585018
