20
 energy: -41.369892847206 gnorm: 0.000128191847 xtb: 6.7.1 (edcfbbe)
C            3.86221302023506       -0.75354421802347        0.69254488016865
O            2.60673196439174       -0.14090769218673        0.41122496395584
C            1.52957675332590       -0.96209769610276        0.37242772449512
O            1.65728636053521       -2.17069387779232        0.57243326258168
C            0.29157440412109       -0.28825535555385        0.08618719393113
C           -0.89143125901194       -1.04262248576958        0.02247624031828
C           -2.10466439859861       -0.46349584819210       -0.24453618278209
O           -3.26559195350711       -1.20559852327966       -0.30721734916643
C           -2.20881416426069        0.94079493882560       -0.46947484864062
O           -3.28807893163413        1.57524707633108       -0.72467438968463
C           -0.97964569472846        1.67941155443354       -0.39779796305744
O           -1.11085910573051        3.02817124931474       -0.62047825626145
C            0.22659582643008        1.09963543879383       -0.13132465681411
H            3.83114153413734       -1.24067756427613        1.66891966078984
H            4.58613705173528        0.05527739327119        0.67971984127853
H            4.09268548714747       -1.50229796378706       -0.06761795791842
H           -0.81643147611971       -2.10887538338671        0.19213060488818
H           -3.05086689495108       -2.13711683419390       -0.14274462092638
H           -2.07468886291875        3.13906561524293       -0.78236386865312
H            1.11992285940184        1.70174008633135       -0.08886165850257
