20
 energy: -41.368636449673 gnorm: 0.000141364488 xtb: 6.7.1 (edcfbbe)
C            3.85440220191970       -0.73260701778360        0.68780916836513
O            2.58350330645384       -0.14341412463665        0.40866395967725
C            1.52702212218554       -0.97096762559159        0.37407138994989
O            1.66165452966870       -2.17125294422554        0.57360012449144
C            0.26307898702739       -0.29994765190921        0.08410236852013
C           -0.89439671668823       -1.07665765932605        0.02708739655957
C           -2.14238474629306       -0.49703176491098       -0.24697950962883
O           -3.27090414162274       -1.11246495122409       -0.32506721433979
C           -2.14170404283901        0.91580287413718       -0.45779781548344
O           -3.37044682931198        1.48056481257588       -0.72631130393366
C           -0.99594442483774        1.68517843934474       -0.40150915030165
O           -1.04865623179782        3.04114746462150       -0.61243475017400
C            0.22300874899751        1.07868314225184       -0.12824242296752
H            3.83361821622470       -1.21817126044884        1.66468699870592
H            4.56151296121109        0.09062646523512        0.67081690047037
H            4.09459033462869       -1.47811544102761       -0.07182747140088
H           -0.82622015648284       -2.14217077515458        0.19652076805073
H           -3.97088080414595        0.70140092184814       -0.69972531106985
H           -1.97387460550018        3.27775536158496       -0.78553541162639
H            1.11669774120239        1.67643348463938       -0.08415656386442
