19
charge=-2 | mult=1 | uhf=0 | uks=false | species=lig_P2_L2m | label=L2- (3,4-bis-deprotonated catecholate) | formula=C8H6O5 | role=ligand | protonation=P2 | metal=none | preopt=GFN2-xTB/ALPB(water)/opt-tight | E_xtb_Eh=-41.137233413762 | preopt_is_not_a_report_quantity=true | builder=build_structures.py+run_xtb_preopt.py
C            3.86433430102280       -0.74884379962988        0.69224325583692
O            2.61488197007694       -0.12625018946747        0.41052736287724
C            1.52217301316129       -0.95450950227859        0.36996621591536
O            1.68141646271014       -2.16644304602830        0.57465036562312
C            0.29338538689650       -0.29048955878963        0.08658321358817
C           -0.89868192208113       -1.04032636583091        0.02052243335508
C           -2.15492238383659       -0.49568698477183       -0.24855544286125
O           -3.23239411133214       -1.21939742293886       -0.30204826078745
C           -2.19199431467926        0.93808587689222       -0.46762528460354
O           -3.26478705776542        1.62183038572947       -0.72929737381862
C           -0.97253943699581        1.66664791063314       -0.39509401491273
O           -1.11898734063627        3.02953569234118       -0.62135238498758
C            0.24203562215173        1.09783939876955       -0.12867447064964
H            3.82733774304771       -1.23878409219786        1.66754243507211
H            4.59118865284422        0.05761165070706        0.68080352810635
H            4.08903039626727       -1.49928751650511       -0.06866498295113
H           -0.83643716132074       -2.11188288028026        0.18944516114163
H           -2.09413089418464        3.08689329196068       -0.77645846672832
H            1.13556004465343        1.70140882168541       -0.08576850921571
