32
Coordinates from ORCA-job pb_P2_cplx E -1182.698678461107
  Pb     -5.541172      0.436005     -0.910200
  C       3.431568     -0.526326      0.968379
  O       2.233364     -0.030183      0.376235
  C       1.076356     -0.572871      0.807807
  O       1.073408     -1.446016      1.670019
  C      -0.102679     -0.030007      0.160875
  C      -1.356789     -0.530784      0.529340
  C      -2.522029     -0.061640     -0.057420
  O      -3.715193     -0.531442      0.272089
  C      -2.422638      0.953351     -1.048080
  O      -3.495801      1.446343     -1.642491
  C      -1.154440      1.443405     -1.406711
  O      -1.093877      2.418890     -2.373338
  C      -0.005811      0.965461     -0.816599
  H       3.419878     -0.346998      2.044990
  H       4.238769      0.018433      0.488684
  H       3.520240     -1.599803      0.791453
  H      -1.406947     -1.301154      1.285359
  H      -2.017539      2.574816     -2.647193
  H       0.952757      1.358792     -1.111880
  O      -5.700879     -2.181107     -1.063897
  H      -4.862445     -2.368302     -0.624483
  H      -6.400609     -2.544053     -0.506507
  O      -6.124850      2.979011     -0.457357
  H      -6.760512      3.350688     -1.081977
  H      -5.315378      3.495751     -0.529887
  O      -6.197339      0.214093      1.613845
  H      -5.366754     -0.160788      1.931882
  H      -6.325115      1.059519      2.060608
  O      -5.892429     -0.189153     -3.445713
  H      -5.146104      0.092904     -3.985934
  H      -5.955562     -1.150104     -3.513524
32
Coordinates from ORCA-job pb_P2_cplx E -1182.701347463751
  Pb     -5.530087      0.436672     -0.910081
  C       3.421503     -0.528207      0.968703
  O       2.226117     -0.029882      0.371092
  C       1.074963     -0.576618      0.799196
  O       1.071809     -1.448049      1.658452
  C      -0.109596     -0.030792      0.152677
  C      -1.363937     -0.531744      0.525019
  C      -2.535645     -0.061640     -0.057803
  O      -3.728193     -0.530603      0.272242
  C      -2.438827      0.954076     -1.047515
  O      -3.507138      1.444702     -1.640991
  C      -1.171139      1.442610     -1.405133
  O      -1.116825      2.420918     -2.365959
  C      -0.015819      0.966917     -0.823379
  H       3.412350     -0.350642      2.045278
  H       4.233134      0.019211      0.496646
  H       3.521693     -1.599150      0.785254
  H      -1.416641     -1.306191      1.281462
  H      -2.039081      2.576583     -2.625802
  H       0.944281      1.365444     -1.124446
  O      -5.692444     -2.213335     -1.074584
  H      -4.859642     -2.389919     -0.619009
  H      -6.390330     -2.577015     -0.519869
  O      -6.114227      3.025901     -0.440745
  H      -6.741390      3.398519     -1.068155
  H      -5.301394      3.534322     -0.530799
  O      -6.199968      0.221816      1.652955
  H      -5.360532     -0.140384      1.962785
  H      -6.316512      1.070281      2.093911
  O      -5.866855     -0.214421     -3.481215
  H      -5.112322      0.062089     -4.011622
  H      -5.913858     -1.174741     -3.540193
32
Coordinates from ORCA-job pb_P2_cplx E -1182.703140216532
  Pb     -5.514522      0.435513     -0.908724
  C       3.406930     -0.536327      0.958996
  O       2.211291     -0.030688      0.367995
  C       1.065034     -0.575244      0.800298
  O       1.057708     -1.453291      1.648915
  C      -0.123449     -0.025815      0.151407
  C      -1.376559     -0.528814      0.523359
  C      -2.552461     -0.058584     -0.057425
  O      -3.745963     -0.525931      0.270807
  C      -2.457869      0.957158     -1.045194
  O      -3.524042      1.443209     -1.638014
  C      -1.190645      1.446569     -1.399044
  O      -1.142152      2.426517     -2.357694
  C      -0.030140      0.974689     -0.821991
  H       3.410737     -0.360847      2.035537
  H       4.221150      0.010578      0.488663
  H       3.512931     -1.604533      0.765461
  H      -1.435065     -1.305979      1.277850
  H      -2.066232      2.581210     -2.609518
  H       0.928124      1.377980     -1.125869
  O      -5.673587     -2.246583     -1.087309
  H      -4.848065     -2.407187     -0.611930
  H      -6.370177     -2.613985     -0.533193
  O      -6.099207      3.065404     -0.421320
  H      -6.717818      3.438167     -1.057530
  H      -5.282777      3.565169     -0.530866
  O      -6.200434      0.233762      1.690207
  H      -5.350500     -0.113838      1.988825
  H      -6.301780      1.087724      2.124256
  O      -5.829002     -0.242914     -3.514233
  H      -5.063417      0.028182     -4.032141
  H      -5.854594     -1.204542     -3.562210
32
Coordinates from ORCA-job pb_P2_cplx E -1182.704136133950
  Pb     -5.504297      0.435976     -0.902320
  C       3.389551     -0.518875      0.971896
  O       2.194590     -0.032038      0.365348
  C       1.053388     -0.598183      0.777291
  O       1.040431     -1.464651      1.636060
  C      -0.137590     -0.040704      0.131939
  C      -1.388934     -0.542186      0.506362
  C      -2.566065     -0.065582     -0.067662
  O      -3.762595     -0.527269      0.262527
  C      -2.473289      0.952327     -1.051873
  O      -3.542329      1.440158     -1.638988
  C      -1.206449      1.440140     -1.406333
  O      -1.161791      2.424084     -2.362149
  C      -0.043472      0.965086     -0.835986
  H       3.377370     -0.347897      2.048968
  H       4.202569      0.045873      0.519998
  H       3.524125     -1.582102      0.769445
  H      -1.453238     -1.322336      1.256966
  H      -2.088026      2.581838     -2.606287
  H       0.912866      1.369375     -1.142572
  O      -5.665041     -2.277124     -1.102346
  H      -4.845900     -2.421785     -0.610208
  H      -6.359223     -2.647102     -0.545824
  O      -6.071339      3.106812     -0.387340
  H      -6.683546      3.481407     -1.030032
  H      -5.249322      3.592815     -0.520251
  O      -6.189772      0.248143      1.735410
  H      -5.328015     -0.088308      2.013735
  H      -6.269799      1.108496      2.162202
  O      -5.803746     -0.260665     -3.542071
  H      -5.027419      0.004736     -4.048047
  H      -5.810242     -1.223730     -3.579484
32
Coordinates from ORCA-job pb_P2_cplx E -1182.704528927522
  Pb     -5.496917      0.426219     -0.900901
  C       3.369416     -0.548714      0.930614
  O       2.169305     -0.030082      0.364106
  C       1.027703     -0.566396      0.809738
  O       1.015111     -1.469811      1.628701
  C      -0.164297     -0.016736      0.152960
  C      -1.411855     -0.528840      0.518289
  C      -2.586862     -0.056122     -0.061098
  O      -3.787984     -0.518644      0.262515
  C      -2.495665      0.961689     -1.044471
  O      -3.570202      1.441060     -1.635970
  C      -1.231110      1.458064     -1.390802
  O      -1.189018      2.444373     -2.346082
  C      -0.068439      0.990040     -0.813828
  H       3.396736     -0.380494      2.007847
  H       4.183733     -0.002379      0.458327
  H       3.474787     -1.612777      0.715421
  H      -1.483200     -1.309645      1.266904
  H      -2.115988      2.597986     -2.591537
  H       0.885382      1.402228     -1.115020
  O      -5.626794     -2.335824     -1.123033
  H      -4.822211     -2.443116     -0.596883
  H      -6.320261     -2.712327     -0.568651
  O      -6.057101      3.155800     -0.363395
  H      -6.658378      3.521949     -1.022536
  H      -5.229388      3.624578     -0.526122
  O      -6.197301      0.269758      1.790348
  H      -5.317287     -0.041112      2.043034
  H      -6.258559      1.141883      2.197006
  O      -5.731710     -0.308685     -3.591053
  H      -4.936741     -0.044364     -4.069694
  H      -5.701458     -1.272827     -3.606362
32
Coordinates from ORCA-job pb_P2_cplx E -1182.705095569707
  Pb     -5.506297      0.426990     -0.895787
  C       3.366073     -0.525367      0.950737
  O       2.167285     -0.029523      0.361286
  C       1.026732     -0.589554      0.782293
  O       1.015536     -1.474869      1.621685
  C      -0.166077     -0.035116      0.134261
  C      -1.413827     -0.543847      0.504701
  C      -2.587678     -0.065655     -0.070032
  O      -3.789885     -0.525082      0.257516
  C      -2.496958      0.953998     -1.051867
  O      -3.574065      1.438667     -1.638172
  C      -1.233193      1.448700     -1.402727
  O      -1.189326      2.436682     -2.355999
  C      -0.071490      0.974284     -0.829599
  H       3.364904     -0.361945      2.029119
  H       4.177725      0.039593      0.496718
  H       3.494488     -1.586910      0.735240
  H      -1.483378     -1.325797      1.252065
  H      -2.115634      2.594732     -2.600578
  H       0.883036      1.383575     -1.132451
  O      -5.636419     -2.344304     -1.128635
  H      -4.833321     -2.444888     -0.599228
  H      -6.330440     -2.719039     -0.573639
  O      -6.041516      3.168151     -0.345480
  H      -6.644543      3.534775     -1.002615
  H      -5.210391      3.627303     -0.516109
  O      -6.189451      0.276114      1.810396
  H      -5.305658     -0.033930      2.048820
  H      -6.243947      1.151297      2.211521
  O      -5.732876     -0.304457     -3.596529
  H      -4.935291     -0.039547     -4.069944
  H      -5.700668     -1.268298     -3.608594
32
Coordinates from ORCA-job pb_P2_cplx E -1182.705383225147
  Pb     -5.516244      0.424201     -0.891709
  C       3.359618     -0.517744      0.950970
  O       2.160396     -0.028253      0.356151
  C       1.020328     -0.596052      0.770504
  O       1.012923     -1.475491      1.616929
  C      -0.173105     -0.041233      0.128709
  C      -1.420950     -0.549509      0.502248
  C      -2.593142     -0.069582     -0.072019
  O      -3.795868     -0.528395      0.255833
  C      -2.503425      0.950357     -1.052849
  O      -3.582691      1.435721     -1.636483
  C      -1.241329      1.446800     -1.406377
  O      -1.195452      2.435439     -2.357777
  C      -0.080739      0.968936     -0.834090
  H       3.347997     -0.359340      2.030086
  H       4.168639      0.054497      0.502150
  H       3.492514     -1.578673      0.734867
  H      -1.487299     -1.331878      1.249376
  H      -2.120493      2.596345     -2.604100
  H       0.874590      1.376831     -1.137063
  O      -5.634015     -2.358110     -1.133983
  H      -4.835618     -2.442704     -0.594827
  H      -6.330898     -2.730705     -0.581305
  O      -6.027633      3.175584     -0.332429
  H      -6.632277      3.537857     -0.990195
  H      -5.192483      3.623376     -0.511918
  O      -6.185805      0.285580      1.828090
  H      -5.296390     -0.019943      2.049674
  H      -6.235920      1.166089      2.217698
  O      -5.711284     -0.306329     -3.603989
  H      -4.908203     -0.037179     -4.065262
  H      -5.672294     -1.269763     -3.608536
32
Coordinates from ORCA-job pb_P2_cplx E -1182.705831222415
  Pb     -5.533829      0.417265     -0.885050
  C       3.348724     -0.514979      0.941453
  O       2.147739     -0.026260      0.347203
  C       1.007480     -0.596673      0.761561
  O       1.006688     -1.473460      1.612083
  C      -0.187027     -0.043955      0.127099
  C      -1.434951     -0.553705      0.504047
  C      -2.605187     -0.073473     -0.071086
  O      -3.808054     -0.533244      0.255377
  C      -2.517846      0.946536     -1.050776
  O      -3.600131      1.430038     -1.630604
  C      -1.258548      1.447000     -1.408092
  O      -1.210204      2.435422     -2.356987
  C      -0.099195      0.966109     -0.835690
  H       3.331813     -0.362623      2.021408
  H       4.154171      0.061178      0.492396
  H       3.478306     -1.576480      0.725840
  H      -1.494246     -1.336170      1.251544
  H      -2.133107      2.599670     -2.607471
  H       0.857256      1.372494     -1.138338
  O      -5.622627     -2.378805     -1.141937
  H      -4.833331     -2.431079     -0.585053
  H      -6.325770     -2.747393     -0.594836
  O      -6.007429      3.176839     -0.317005
  H      -6.615398      3.527962     -0.977165
  H      -5.166021      3.605536     -0.510955
  O      -6.179631      0.303025      1.849978
  H      -5.280828      0.005200      2.041933
  H      -6.224363      1.193290      2.216619
  O      -5.664800     -0.306516     -3.610229
  H      -4.852515     -0.027045     -4.047900
  H      -5.613689     -1.268976     -3.600994
32
Coordinates from ORCA-job pb_P2_cplx E -1182.706158892016
  Pb     -5.544316      0.412244     -0.881184
  C       3.342022     -0.517384      0.933692
  O       2.139830     -0.025428      0.343306
  C       0.999401     -0.592427      0.762951
  O       1.000969     -1.472128      1.610822
  C      -0.195691     -0.042613      0.128858
  C      -1.443244     -0.554701      0.506127
  C      -2.613552     -0.075671     -0.069261
  O      -3.815895     -0.537104      0.256146
  C      -2.528312      0.944856     -1.048493
  O      -3.611786      1.426357     -1.626036
  C      -1.270034      1.447270     -1.407454
  O      -1.221701      2.435089     -2.355572
  C      -0.110471      0.966923     -0.834669
  H       3.328780     -0.365107      2.013709
  H       4.146405      0.056450      0.480114
  H       3.466354     -1.579887      0.719931
  H      -1.498119     -1.336961      1.254084
  H      -2.143772      2.600193     -2.608284
  H       0.846090      1.373469     -1.136880
  O      -5.612314     -2.388363     -1.146797
  H      -4.828519     -2.418691     -0.580622
  H      -6.318862     -2.754677     -0.602811
  O      -5.998242      3.170849     -0.311569
  H      -6.607673      3.513317     -0.974763
  H      -5.153628      3.588478     -0.514539
  O      -6.172944      0.314137      1.858576
  H      -5.269055      0.020025      2.031458
  H      -6.213306      1.210466      2.210150
  O      -5.636833     -0.302329     -3.608879
  H      -4.819577     -0.015715     -4.032051
  H      -5.578555     -1.264208     -3.591689
32
Coordinates from ORCA-job pb_P2_cplx E -1182.706502631098
  Pb     -5.553412      0.407381     -0.878010
  C       3.334959     -0.521277      0.927685
  O       2.131902     -0.025508      0.341985
  C       0.991985     -0.587392      0.768540
  O       0.993097     -1.472426      1.610453
  C      -0.203703     -0.040490      0.130963
  C      -1.450289     -0.555431      0.507047
  C      -2.622167     -0.078526     -0.067477
  O      -3.823471     -0.542322      0.257480
  C      -2.539511      0.943294     -1.046260
  O      -3.623409      1.422984     -1.621717
  C      -1.281159      1.446457     -1.405637
  O      -1.234747      2.434033     -2.353779
  C      -0.120142      0.968799     -0.833183
  H       3.329476     -0.365731      2.007279
  H       4.139624      0.047925      0.468532
  H       3.455400     -1.584593      0.715960
  H      -1.502299     -1.337700      1.255141
  H      -2.156783      2.598763     -2.607121
  H       0.835683      1.376864     -1.135151
  O      -5.600170     -2.395151     -1.152114
  H      -4.820978     -2.403034     -0.579076
  H      -6.308473     -2.759742     -0.609491
  O      -5.992852      3.161462     -0.309103
  H      -6.601950      3.494564     -0.977495
  H      -5.145759      3.569194     -0.521751
  O      -6.161619      0.325189      1.864499
  H      -5.253311      0.033420      2.017811
  H      -6.194277      1.227336      2.201454
  O      -5.615001     -0.294316     -3.604226
  H      -4.793398     -0.001521     -4.014529
  H      -5.549799     -1.255774     -3.580336
32
Coordinates from ORCA-job pb_P2_cplx E -1182.706899625003
  Pb     -5.566265      0.400713     -0.872815
  C       3.323444     -0.522043      0.924234
  O       2.119652     -0.026215      0.340540
  C       0.981260     -0.586481      0.770995
  O       0.981533     -1.474919      1.608593
  C      -0.215570     -0.041923      0.130114
  C      -1.460656     -0.559774      0.505537
  C      -2.634859     -0.085040     -0.066570
  O      -3.835080     -0.551699      0.258798
  C      -2.555673      0.939120     -1.044220
  O      -3.640567      1.417517     -1.616075
  C      -1.297282      1.442718     -1.404198
  O      -1.254139      2.431066     -2.352096
  C      -0.133980      0.968050     -0.833760
  H       3.323415     -0.362546      2.003242
  H       4.128393      0.044631      0.461984
  H       3.444685     -1.585530      0.714085
  H      -1.510134     -1.342699      1.253170
  H      -2.176523      2.595299     -2.604282
  H       0.820582      1.378420     -1.136220
  O      -5.582859     -2.404519     -1.161276
  H      -4.810646     -2.378918     -0.578150
  H      -6.292586     -2.766677     -0.618929
  O      -5.983890      3.148135     -0.304727
  H      -6.591807      3.467329     -0.981065
  H      -5.133586      3.540495     -0.533807
  O      -6.139562      0.342996      1.875037
  H      -5.224946      0.053245      1.997205
  H      -6.157472      1.253498      2.189885
  O      -5.588293     -0.279156     -3.596095
  H      -4.760337      0.021394     -3.987703
  H      -5.512806     -1.239759     -3.563059
32
Coordinates from ORCA-job pb_P2_cplx E -1182.707444335500
  Pb     -5.585656      0.391153     -0.864968
  C       3.307579     -0.519516      0.922447
  O       2.102747     -0.027676      0.338585
  C       0.966637     -0.590330      0.769886
  O       0.967176     -1.479859      1.605639
  C      -0.232029     -0.047803      0.127395
  C      -1.475117     -0.568829      0.503032
  C      -2.652066     -0.096435     -0.065341
  O      -3.851091     -0.567123      0.261525
  C      -2.577355      0.931164     -1.041123
  O      -3.664027      1.408973     -1.608170
  C      -1.319435      1.435564     -1.402085
  O      -1.280682      2.425756     -2.349369
  C      -0.153278      0.963839     -0.835209
  H       3.309952     -0.356096      2.000858
  H       4.112249      0.047286      0.459371
  H       3.433578     -1.582623      0.713379
  H      -1.522148     -1.353136      1.249462
  H      -2.203921      2.589210     -2.598669
  H       0.799454      1.377261     -1.138967
  O      -5.557709     -2.416484     -1.175682
  H      -4.797513     -2.341283     -0.578800
  H      -6.268553     -2.774865     -0.632081
  O      -5.972718      3.126769     -0.301008
  H      -6.579275      3.424122     -0.988636
  H      -5.118735      3.495736     -0.555002
  O      -6.102824      0.371414      1.890222
  H      -5.181642      0.081358      1.964709
  H      -6.097173      1.293285      2.171011
  O      -5.556552     -0.252105     -3.581780
  H      -4.719926      0.059198     -3.945684
  H      -5.466500     -1.211197     -3.536574
32
Coordinates from ORCA-job pb_P2_cplx E -1182.708122648011
  Pb     -5.611737      0.377534     -0.853125
  C       3.286423     -0.512309      0.921357
  O       2.079278     -0.029599      0.336211
  C       0.946704     -0.599604      0.765989
  O       0.950382     -1.488257      1.602218
  C      -0.254970     -0.060129      0.124411
  C      -1.495362     -0.585583      0.501114
  C      -2.675369     -0.115749     -0.062167
  O      -3.873486     -0.592002      0.267410
  C      -2.606313      0.916738     -1.035028
  O      -3.695715      1.395070     -1.595987
  C      -1.350028      1.423103     -1.397601
  O      -1.317351      2.416467     -2.343477
  C      -0.180559      0.954187     -0.835850
  H       3.288382     -0.345199      1.999220
  H       4.089060      0.058140      0.458807
  H       3.421261     -1.574448      0.712998
  H      -1.540081     -1.372038      1.245477
  H      -2.242326      2.578115     -2.587592
  H       0.769516      1.371893     -1.141681
  O      -5.518707     -2.431768     -1.199429
  H      -4.779942     -2.283114     -0.584742
  H      -6.229948     -2.784419     -0.651793
  O      -5.958919      3.092845     -0.301653
  H      -6.564359      3.354943     -1.004866
  H      -5.101006      3.425494     -0.592276
  O      -6.044420      0.418369      1.912133
  H      -5.119351      0.121021      1.915011
  H      -6.002729      1.354310      2.139133
  O      -5.521470     -0.205868     -3.558323
  H      -4.673334      0.121022     -3.880507
  H      -5.410076     -1.162432     -3.497023
32
Coordinates from ORCA-job pb_P2_cplx E -1182.708556613291
  Pb     -5.632604      0.366780     -0.843611
  C       3.270143     -0.504626      0.922668
  O       2.060391     -0.030728      0.337174
  C       0.931311     -0.609612      0.764053
  O       0.939370     -1.498338      1.599998
  C      -0.273200     -0.073223      0.124569
  C      -1.511133     -0.603282      0.501331
  C      -2.693643     -0.135484     -0.057430
  O      -3.890467     -0.617567      0.275366
  C      -2.629502      0.901552     -1.026518
  O      -3.720250      1.382306     -1.583881
  C      -1.374989      1.410904     -1.389668
  O      -1.348200      2.408559     -2.332902
  C      -0.202837      0.944389     -0.832356
  H       3.270626     -0.336517      2.000411
  H       4.069957      0.071257      0.461724
  H       3.413707     -1.565357      0.712991
  H      -1.555234     -1.392266      1.243026
  H      -2.275362      2.567581     -2.571202
  H       0.744470      1.367126     -1.139334
  O      -5.480043     -2.441335     -1.223052
  H      -4.763248     -2.225704     -0.598900
  H      -6.188497     -2.788963     -0.668367
  O      -5.951329      3.055819     -0.314092
  H      -6.556254      3.282869     -1.030371
  H      -5.090501      3.352703     -0.635754
  O      -5.982371      0.467191      1.926981
  H      -5.062794      0.153377      1.865100
  H      -5.904976      1.412598      2.101624
  O      -5.512072     -0.157625     -3.532883
  H      -4.655962      0.183860     -3.818191
  H      -5.381057     -1.111513     -3.460132
32
Coordinates from ORCA-job pb_P2_cplx E -1182.708784339687
  Pb     -5.643046      0.364730     -0.842570
  C       3.264094     -0.500472      0.925848
  O       2.052815     -0.030438      0.340638
  C       0.925356     -0.616790      0.762725
  O       0.937191     -1.506624      1.597749
  C      -0.280514     -0.081329      0.126762
  C      -1.517392     -0.614258      0.502296
  C      -2.700193     -0.146041     -0.054806
  O      -3.895760     -0.630891      0.279644
  C      -2.638235      0.892945     -1.019933
  O      -3.728559      1.377267     -1.578369
  C      -1.385041      1.406085     -1.382108
  O      -1.360302      2.407422     -2.321858
  C      -0.212376      0.939484     -0.826464
  H       3.260777     -0.337383      2.004388
  H       4.061376      0.081774      0.468733
  H       3.412328     -1.559691      0.711717
  H      -1.562670     -1.405522      1.241375
  H      -2.288565      2.565126     -2.557440
  H       0.733597      1.365631     -1.132645
  O      -5.457451     -2.447426     -1.237142
  H      -4.751541     -2.200482     -0.613897
  H      -6.160987     -2.794570     -0.676822
  O      -5.953742      3.041009     -0.329165
  H      -6.559807      3.251360     -1.049853
  H      -5.090767      3.317952     -0.663626
  O      -5.942520      0.497367      1.935772
  H      -5.032804      0.168125      1.843037
  H      -5.842724      1.445514      2.083650
  O      -5.526886     -0.137302     -3.522844
  H      -4.668542      0.213269     -3.790145
  H      -5.383660     -1.089114     -3.446273
32
Coordinates from ORCA-job pb_P2_cplx E -1182.709173849772
  Pb     -5.652197      0.366029     -0.845130
  C       3.257465     -0.498709      0.929138
  O       2.044110     -0.029440      0.346394
  C       0.917887     -0.626421      0.759608
  O       0.935649     -1.519384      1.592084
  C      -0.289467     -0.089855      0.132172
  C      -1.525578     -0.626843      0.505178
  C      -2.706689     -0.155260     -0.051914
  O      -3.902403     -0.641183      0.281822
  C      -2.645506      0.885939     -1.010487
  O      -3.735927      1.375320     -1.573231
  C      -1.394973      1.407222     -1.369500
  O      -1.370167      2.413851     -2.301967
  C      -0.223660      0.937017     -0.814163
  H       3.246509     -0.351119      2.009881
  H       4.050304      0.095291      0.480328
  H       3.408915     -1.555153      0.703562
  H      -1.573544     -1.422085      1.239520
  H      -2.299007      2.570757     -2.536671
  H       0.721764      1.366946     -1.116998
  O      -5.423195     -2.468053     -1.258273
  H      -4.728429     -2.191034     -0.637333
  H      -6.117783     -2.821200     -0.691382
  O      -5.961720      3.047947     -0.350983
  H      -6.571390      3.244836     -1.072489
  H      -5.095312      3.299637     -0.698377
  O      -5.892018      0.538644      1.961121
  H      -4.996339      0.187804      1.836505
  H      -5.763977      1.487377      2.080120
  O      -5.557454     -0.136229     -3.528559
  H      -4.698163      0.228386     -3.775009
  H      -5.394259     -1.084305     -3.446593
32
Coordinates from ORCA-job pb_P2_cplx E -1182.709510547159
  Pb     -5.660531      0.366792     -0.847924
  C       3.247869     -0.505942      0.933118
  O       2.033411     -0.030821      0.356008
  C       0.907823     -0.633546      0.762891
  O       0.927699     -1.534287      1.587064
  C      -0.300431     -0.094049      0.140851
  C      -1.535689     -0.636406      0.508304
  C      -2.716721     -0.162281     -0.048455
  O      -3.911918     -0.651465      0.282590
  C      -2.655129      0.882890     -0.999013
  O      -3.744622      1.375515     -1.565416
  C      -1.406526      1.413091     -1.351977
  O      -1.383076      2.425811     -2.275689
  C      -0.235794      0.940460     -0.797216
  H       3.234911     -0.373762      2.015802
  H       4.038632      0.095722      0.491349
  H       3.398861     -1.559624      0.694672
  H      -1.586012     -1.436925      1.236615
  H      -2.312527      2.580449     -2.510456
  H       0.709154      1.375174     -1.095014
  O      -5.370957     -2.489789     -1.281794
  H      -4.687585     -2.176410     -0.664036
  H      -6.052837     -2.854324     -0.706699
  O      -5.979846      3.055363     -0.382897
  H      -6.592676      3.237487     -1.105362
  H      -5.110372      3.278086     -0.742730
  O      -5.823653      0.586575      1.983348
  H      -4.944883      0.205006      1.822531
  H      -5.661311      1.534013      2.068275
  O      -5.602405     -0.139454     -3.530791
  H      -4.745674      0.246702     -3.755065
  H      -5.413735     -1.083321     -3.444511
32
Coordinates from ORCA-job pb_P2_cplx E -1182.709956838652
  Pb     -5.676977      0.368761     -0.859394
  C       3.224099     -0.547185      0.938873
  O       2.010432     -0.042012      0.381847
  C       0.883190     -0.644851      0.780238
  O       0.898450     -1.568211      1.578493
  C      -0.324831     -0.089790      0.167986
  C      -1.558646     -0.643553      0.518638
  C      -2.740265     -0.164922     -0.038325
  O      -3.933119     -0.665093      0.276854
  C      -2.676679      0.892119     -0.969264
  O      -3.763760      1.386512     -1.543286
  C      -1.429843      1.442376     -1.302426
  O      -1.408684      2.469997     -2.204267
  C      -0.259907      0.964280     -0.749084
  H       3.217562     -0.450344      2.025341
  H       4.016860      0.061033      0.510141
  H       3.362223     -1.595084      0.668759
  H      -1.611048     -1.458583      1.230744
  H      -2.337263      2.619750     -2.446005
  H       0.685648      1.408116     -1.032346
  O      -5.214765     -2.536061     -1.330988
  H      -4.556668     -2.145514     -0.725097
  H      -5.858943     -2.941009     -0.741114
  O      -6.044078      3.083341     -0.468123
  H      -6.663707      3.245707     -1.188957
  H      -5.167386      3.243124     -0.845790
  O      -5.658042      0.697413      2.015780
  H      -4.831079      0.234649      1.787100
  H      -5.416121      1.631853      2.028700
  O      -5.731310     -0.179236     -3.531372
  H      -4.893118      0.270170     -3.713784
  H      -5.478777     -1.111026     -3.441496
32
Coordinates from ORCA-job pb_P2_cplx E -1182.710128641000
  Pb     -5.675010      0.367484     -0.851328
  C       3.227644     -0.540834      0.934166
  O       2.013514     -0.041747      0.373714
  C       0.886643     -0.642413      0.776534
  O       0.901702     -1.560032      1.581265
  C      -0.321279     -0.089225      0.162270
  C      -1.555685     -0.640397      0.517080
  C      -2.737029     -0.162066     -0.038500
  O      -3.932551     -0.660667      0.277406
  C      -2.673095      0.895219     -0.975114
  O      -3.762444      1.386908     -1.544227
  C      -1.425170      1.438701     -1.313004
  O      -1.401418      2.462937     -2.219965
  C      -0.255565      0.960337     -0.759766
  H       3.222308     -0.433964      2.019589
  H       4.020308      0.063870      0.500150
  H       3.367422     -1.590583      0.672710
  H      -1.603969     -1.452578      1.232647
  H      -2.328535      2.616259     -2.463682
  H       0.691039      1.399849     -1.045916
  O      -5.239401     -2.532250     -1.321912
  H      -4.574968     -2.157604     -0.711080
  H      -5.893345     -2.934564     -0.739320
  O      -6.027583      3.087893     -0.451071
  H      -6.644960      3.259887     -1.171154
  H      -5.153952      3.260290     -0.826211
  O      -5.702546      0.673433      2.016247
  H      -4.865414      0.226065      1.802301
  H      -5.476165      1.610179      2.048867
  O      -5.697242     -0.180772     -3.533241
  H      -4.859897      0.258393     -3.726476
  H      -5.459907     -1.111278     -3.444608
32
Coordinates from ORCA-job pb_P2_cplx E -1182.710224458344
  Pb     -5.677004      0.363440     -0.842080
  C       3.224098     -0.535649      0.930317
  O       2.008975     -0.043192      0.367964
  C       0.883466     -0.643690      0.774278
  O       0.899226     -1.556850      1.583660
  C      -0.325361     -0.092264      0.159018
  C      -1.559526     -0.642512      0.517226
  C      -2.740998     -0.164962     -0.035672
  O      -3.938657     -0.663964      0.279601
  C      -2.679046      0.893613     -0.975444
  O      -3.771125      1.383171     -1.538205
  C      -1.430951      1.432401     -1.316823
  O      -1.407107      2.455913     -2.226614
  C      -0.260363      0.954823     -0.765562
  H       3.220802     -0.419803      2.014745
  H       4.016386      0.066761      0.492106
  H       3.367271     -1.586378      0.675140
  H      -1.603771     -1.453505      1.234384
  H      -2.333495      2.611717     -2.470126
  H       0.686141      1.392580     -1.054249
  O      -5.230939     -2.529775     -1.323392
  H      -4.577977     -2.145180     -0.705503
  H      -5.889954     -2.931171     -0.745050
  O      -6.008132      3.082966     -0.442972
  H      -6.622453      3.253857     -1.166308
  H      -5.135813      3.248369     -0.824228
  O      -5.718386      0.674149      2.015285
  H      -4.881073      0.225187      1.792350
  H      -5.490237      1.608612      2.044932
  O      -5.679080     -0.170328     -3.524076
  H      -4.840448      0.270704     -3.714511
  H      -5.441021     -1.102308     -3.431818
32
Coordinates from ORCA-job pb_P2_cplx E -1182.710317516170
  Pb     -5.683886      0.364953     -0.838135
  C       3.224050     -0.536765      0.925415
  O       2.009086     -0.046790      0.363218
  C       0.883916     -0.643272      0.774974
  O       0.898022     -1.553561      1.586876
  C      -0.324897     -0.091116      0.157665
  C      -1.559531     -0.639143      0.517240
  C      -2.741331     -0.162112     -0.032289
  O      -3.936767     -0.664461      0.282035
  C      -2.682250      0.896745     -0.972004
  O      -3.772649      1.384612     -1.529602
  C      -1.432487      1.429972     -1.315451
  O      -1.406858      2.454286     -2.227791
  C      -0.260002      0.954000     -0.767771
  H       3.226832     -0.409854      2.008571
  H       4.018222      0.059218      0.481200
  H       3.367517     -1.588958      0.676840
  H      -1.599064     -1.450042      1.234924
  H      -2.331463      2.614735     -2.472641
  H       0.686301      1.390292     -1.058686
  O      -5.221637     -2.516986     -1.318916
  H      -4.571008     -2.137486     -0.703070
  H      -5.881944     -2.924033     -0.749118
  O      -5.997045      3.078447     -0.447382
  H      -6.606158      3.264638     -1.171953
  H      -5.123805      3.247277     -0.821981
  O      -5.741962      0.664469      2.002598
  H      -4.910882      0.212072      1.788030
  H      -5.510449      1.596817      2.048229
  O      -5.673579     -0.173262     -3.509621
  H      -4.840236      0.269487     -3.711657
  H      -5.440610     -1.107451     -3.421374
32
Coordinates from ORCA-job pb_P2_cplx E -1182.710464681328
  Pb     -5.691552      0.363997     -0.831830
  C       3.219223     -0.540887      0.920876
  O       2.003860     -0.049192      0.361049
  C       0.878687     -0.645453      0.773776
  O       0.894452     -1.556101      1.585459
  C      -0.330874     -0.092098      0.160109
  C      -1.565285     -0.641277      0.520780
  C      -2.746475     -0.163070     -0.027237
  O      -3.942855     -0.666696      0.284320
  C      -2.689660      0.898026     -0.965583
  O      -3.782809      1.385081     -1.519577
  C      -1.440839      1.432527     -1.309331
  O      -1.413998      2.458654     -2.219465
  C      -0.267921      0.954872     -0.763416
  H       3.223116     -0.415632      2.004330
  H       4.013109      0.054992      0.476108
  H       3.360799     -1.593154      0.671069
  H      -1.601375     -1.453740      1.236907
  H      -2.337729      2.621766     -2.465121
  H       0.678363      1.391421     -1.054224
  O      -5.185962     -2.523413     -1.331227
  H      -4.548338     -2.126471     -0.708196
  H      -5.844662     -2.940614     -0.766725
  O      -5.987934      3.082917     -0.461463
  H      -6.597307      3.274196     -1.184474
  H      -5.111921      3.237686     -0.839848
  O      -5.738916      0.680842      2.010811
  H      -4.916495      0.215168      1.785945
  H      -5.493546      1.611907      2.049012
  O      -5.680990     -0.180746     -3.501761
  H      -4.852418      0.272376     -3.700524
  H      -5.438299     -1.111156     -3.412175
32
Coordinates from ORCA-job pb_P2_cplx E -1182.710702266894
  Pb     -5.715845      0.366080     -0.832958
  C       3.204516     -0.545891      0.914852
  O       1.988370     -0.050972      0.358466
  C       0.862985     -0.647526      0.772109
  O       0.882295     -1.559780      1.582650
  C      -0.347808     -0.093826      0.164340
  C      -1.581511     -0.645915      0.525967
  C      -2.761257     -0.164665     -0.021269
  O      -3.957694     -0.667971      0.285567
  C      -2.709140      0.897218     -0.956406
  O      -3.806577      1.386478     -1.506114
  C      -1.462385      1.436608     -1.300444
  O      -1.432109      2.464985     -2.206529
  C      -0.288943      0.956257     -0.756109
  H       3.208633     -0.425426      1.999059
  H       3.997202      0.051192      0.469928
  H       3.342525     -1.598237      0.662442
  H      -1.614125     -1.460514      1.239712
  H      -2.354361      2.632825     -2.454139
  H       0.656699      1.394746     -1.046676
  O      -5.092580     -2.536320     -1.357242
  H      -4.494097     -2.098276     -0.722071
  H      -5.745237     -2.976764     -0.803741
  O      -5.942300      3.098076     -0.476078
  H      -6.551671      3.318142     -1.190434
  H      -5.062466      3.212137     -0.862304
  O      -5.733496      0.715632      2.030999
  H      -4.932178      0.221753      1.779712
  H      -5.455108      1.634741      2.063154
  O      -5.710511     -0.209345     -3.493450
  H      -4.890437      0.266875     -3.689564
  H      -5.437941     -1.135588     -3.395056
32
Coordinates from ORCA-job pb_P2_cplx E -1182.710879434119
  Pb     -5.731989      0.368210     -0.816893
  C       3.194866     -0.551840      0.911956
  O       1.978738     -0.052852      0.358107
  C       0.853130     -0.648557      0.772363
  O       0.872468     -1.565353      1.577900
  C      -0.358006     -0.093681      0.166454
  C      -1.591222     -0.647982      0.527172
  C      -2.772264     -0.163210     -0.016810
  O      -3.968347     -0.667221      0.292731
  C      -2.719801      0.900751     -0.947061
  O      -3.818681      1.390483     -1.491044
  C      -1.474552      1.442804     -1.291834
  O      -1.444710      2.473351     -2.193890
  C      -0.300335      0.959993     -0.750405
  H       3.200913     -0.434082      1.996488
  H       3.987693      0.044952      0.466892
  H       3.330358     -1.604033      0.657438
  H      -1.624053     -1.464596      1.238440
  H      -2.367597      2.643018     -2.438810
  H       0.644371      1.400643     -1.041013
  O      -5.030345     -2.539360     -1.387850
  H      -4.454902     -2.079634     -0.736057
  H      -5.680369     -3.003023     -0.845955
  O      -5.917795      3.100641     -0.509275
  H      -6.523633      3.345200     -1.218372
  H      -5.035010      3.191549     -0.893544
  O      -5.724126      0.735431      2.050338
  H      -4.934694      0.221137      1.793755
  H      -5.419805      1.652996      2.076219
  O      -5.734580     -0.229818     -3.474078
  H      -4.925961      0.256226     -3.677670
  H      -5.446312     -1.145413     -3.377321
32
Coordinates from ORCA-job pb_P2_cplx E -1182.711149980386
  Pb     -5.754293      0.380012     -0.831523
  C       3.179051     -0.543009      0.917716
  O       1.964330     -0.048846      0.356278
  C       0.838409     -0.641197      0.772949
  O       0.854200     -1.554586      1.581949
  C      -0.371489     -0.090560      0.158434
  C      -1.604946     -0.640783      0.520435
  C      -2.787489     -0.157045     -0.025744
  O      -3.979693     -0.657788      0.290404
  C      -2.732665      0.898331     -0.958678
  O      -3.827275      1.390963     -1.501769
  C      -1.486167      1.436801     -1.307808
  O      -1.456943      2.462508     -2.215112
  C      -0.311660      0.957162     -0.764690
  H       3.184175     -0.414035      2.000800
  H       3.973325      0.049291      0.468971
  H       3.316524     -1.597113      0.673320
  H      -1.643690     -1.452439      1.236930
  H      -2.380550      2.631824     -2.457907
  H       0.632060      1.397326     -1.058996
  O      -4.981932     -2.531540     -1.392918
  H      -4.435453     -2.054047     -0.735369
  H      -5.630492     -3.004285     -0.861023
  O      -5.836482      3.099077     -0.473335
  H      -6.439337      3.397570     -1.163902
  H      -4.958060      3.166150     -0.866574
  O      -5.742280      0.717648      2.045567
  H      -4.958944      0.203562      1.788133
  H      -5.426418      1.627790      2.101572
  O      -5.744565     -0.252972     -3.466108
  H      -4.940360      0.229305     -3.694079
  H      -5.447446     -1.168347     -3.359548
32
Coordinates from ORCA-job pb_P2_cplx E -1182.711450464881
  Pb     -5.767110      0.393142     -0.840065
  C       3.163917     -0.531430      0.924368
  O       1.949493     -0.044026      0.355997
  C       0.824252     -0.636877      0.772412
  O       0.838156     -1.546222      1.585553
  C      -0.385104     -0.089729      0.151892
  C      -1.618567     -0.635826      0.516454
  C      -2.802400     -0.153695     -0.031824
  O      -3.995766     -0.648787      0.290329
  C      -2.743373      0.896547     -0.970513
  O      -3.836379      1.390209     -1.515277
  C      -1.495857      1.431407     -1.322652
  O      -1.470440      2.453245     -2.233520
  C      -0.322380      0.953246     -0.777044
  H       3.165640     -0.395481      2.006400
  H       3.957900      0.060501      0.474579
  H       3.305696     -1.586298      0.686897
  H      -1.663814     -1.442683      1.237994
  H      -2.395952      2.619902     -2.471859
  H       0.621245      1.391910     -1.073824
  O      -4.948742     -2.529717     -1.404126
  H      -4.432396     -2.031691     -0.737135
  H      -5.600336     -3.005414     -0.882015
  O      -5.767535      3.087475     -0.439936
  H      -6.369446      3.427030     -1.112353
  H      -4.892587      3.127608     -0.849684
  O      -5.740419      0.709060      2.042551
  H      -4.962155      0.193341      1.781566
  H      -5.414770      1.612598      2.113754
  O      -5.747330     -0.265399     -3.457509
  H      -4.945134      0.212173     -3.704596
  H      -5.444857     -1.179389     -3.338436
32
Coordinates from ORCA-job pb_P2_cplx E -1182.711812033711
  Pb     -5.762758      0.414760     -0.835393
  C       3.150246     -0.519893      0.932851
  O       1.936152     -0.037643      0.358471
  C       0.811373     -0.632140      0.771746
  O       0.822217     -1.536138      1.590276
  C      -0.396957     -0.084879      0.146827
  C      -1.631041     -0.622690      0.516172
  C      -2.816293     -0.144317     -0.035785
  O      -4.017497     -0.629971      0.297810
  C      -2.745321      0.902626     -0.988025
  O      -3.837420      1.393025     -1.543144
  C      -1.495831      1.431220     -1.341349
  O      -1.479904      2.446878     -2.257318
  C      -0.326602      0.952485     -0.789810
  H       3.145998     -0.382467      2.014402
  H       3.943526      0.074445      0.485290
  H       3.295932     -1.574547      0.698126
  H      -1.688255     -1.422807      1.244648
  H      -2.409899      2.604233     -2.487081
  H       0.619111      1.385447     -1.088238
  O      -4.951390     -2.538912     -1.426979
  H      -4.458745     -2.025909     -0.743341
  H      -5.617617     -3.009908     -0.918951
  O      -5.720971      3.062291     -0.404351
  H      -6.326576      3.439148     -1.054134
  H      -4.848427      3.079424     -0.837869
  O      -5.715136      0.693767      2.039089
  H      -4.929168      0.182967      1.791546
  H      -5.392210      1.600974      2.117361
  O      -5.728242     -0.272489     -3.444619
  H      -4.928058      0.187781     -3.720569
  H      -5.436787     -1.180032     -3.309287
32
Coordinates from ORCA-job pb_P2_cplx E -1182.712320145144
  Pb     -5.792106      0.428535     -0.845233
  C       3.129163     -0.524352      0.928235
  O       1.916010     -0.037820      0.354989
  C       0.789157     -0.628795      0.769152
  O       0.800236     -1.529336      1.592028
  C      -0.418456     -0.078890      0.147567
  C      -1.653798     -0.612783      0.519387
  C      -2.835012     -0.133957     -0.036021
  O      -4.037154     -0.615396      0.293964
  C      -2.765194      0.907690     -0.992020
  O      -3.857679      1.397088     -1.552200
  C      -1.515395      1.435850     -1.345631
  O      -1.495998      2.448898     -2.264333
  C      -0.347822      0.955737     -0.791385
  H       3.123558     -0.389326      2.010354
  H       3.923283      0.068258      0.480341
  H       3.268913     -1.580062      0.693244
  H      -1.710211     -1.411288      1.249880
  H      -2.424239      2.608509     -2.498577
  H       0.599786      1.384680     -1.089998
  O      -4.868891     -2.541150     -1.442163
  H      -4.425554     -1.997761     -0.753658
  H      -5.536363     -3.029350     -0.951958
  O      -5.658269      3.058522     -0.378004
  H      -6.255771      3.482513     -1.005801
  H      -4.795763      3.029696     -0.827532
  O      -5.708597      0.709000      2.043215
  H      -4.934635      0.187451      1.774818
  H      -5.372786      1.604070      2.130599
  O      -5.726694     -0.309599     -3.434758
  H      -4.935953      0.162991     -3.726143
  H      -5.414318     -1.212894     -3.273982
32
Coordinates from ORCA-job pb_P2_cplx E -1182.712913209943
  Pb     -5.819030      0.441450     -0.835043
  C       3.110890     -0.534973      0.922410
  O       1.899724     -0.040766      0.352217
  C       0.769278     -0.624933      0.767972
  O       0.778554     -1.522898      1.594301
  C      -0.436252     -0.070317      0.148965
  C      -1.674351     -0.599781      0.521494
  C      -2.849290     -0.118467     -0.036279
  O      -4.052483     -0.599103      0.289821
  C      -2.780592      0.917648     -0.995737
  O      -3.871763      1.404464     -1.562083
  C      -1.529613      1.441587     -1.349999
  O      -1.501609      2.450675     -2.274727
  C      -0.363877      0.959890     -0.792796
  H       3.105989     -0.402635      2.005229
  H       3.907689      0.053537      0.474178
  H       3.242096     -1.591752      0.685332
  H      -1.726578     -1.397333      1.253332
  H      -2.426384      2.613892     -2.518616
  H       0.587154      1.381640     -1.090528
  O      -4.799757     -2.548887     -1.465394
  H      -4.394333     -1.990747     -0.773292
  H      -5.470060     -3.059047     -0.996177
  O      -5.630647      3.072107     -0.354576
  H      -6.216944      3.527644     -0.969421
  H      -4.781673      3.003076     -0.814886
  O      -5.699820      0.719938      2.054523
  H      -4.927724      0.196092      1.767827
  H      -5.364005      1.614186      2.141096
  O      -5.709296     -0.350245     -3.418262
  H      -4.931079      0.133380     -3.723782
  H      -5.380767     -1.242594     -3.228728
32
Coordinates from ORCA-job pb_P2_cplx E -1182.713742000853
  Pb     -5.844285      0.464380     -0.829742
  C       3.086711     -0.549690      0.915363
  O       1.877831     -0.044638      0.351337
  C       0.743530     -0.621002      0.768795
  O       0.749640     -1.520438      1.594111
  C      -0.459329     -0.061192      0.151137
  C      -1.700535     -0.589349      0.520827
  C      -2.867632     -0.104538     -0.040618
  O      -4.073357     -0.584387      0.276128
  C      -2.802211      0.929757     -1.001350
  O      -3.891972      1.414630     -1.578477
  C      -1.549309      1.449700     -1.352160
  O      -1.507449      2.456306     -2.281961
  C      -0.385056      0.966510     -0.791405
  H       3.085690     -0.421972      1.999067
  H       3.887130      0.034164      0.467481
  H       3.208763     -1.606640      0.672326
  H      -1.746860     -1.387717      1.251843
  H      -2.427571      2.624374     -2.538769
  H       0.569565      1.382241     -1.085443
  O      -4.727845     -2.573376     -1.497009
  H      -4.370178     -1.987091     -0.801212
  H      -5.399696     -3.100455     -1.051858
  O      -5.622377      3.095609     -0.312277
  H      -6.201837      3.584682     -0.907793
  H      -4.787509      2.976561     -0.799585
  O      -5.664541      0.748116      2.061738
  H      -4.903093      0.220938      1.741868
  H      -5.325352      1.644496      2.141511
  O      -5.664813     -0.405007     -3.393293
  H      -4.899836      0.086288     -3.715234
  H      -5.322768     -1.284530     -3.156970
32
Coordinates from ORCA-job pb_P2_cplx E -1182.714664900911
  Pb     -5.870341      0.482565     -0.812333
  C       3.058105     -0.557724      0.912587
  O       1.851307     -0.048249      0.350010
  C       0.715409     -0.620158      0.767746
  O       0.716373     -1.522511      1.589432
  C      -0.484935     -0.057240      0.146450
  C      -1.728598     -0.584837      0.512290
  C      -2.892446     -0.096055     -0.050720
  O      -4.099151     -0.579297      0.260928
  C      -2.827338      0.939013     -1.007088
  O      -3.912823      1.422758     -1.587019
  C      -1.572389      1.454008     -1.355578
  O      -1.519969      2.461834     -2.285754
  C      -0.407911      0.970266     -0.795092
  H       3.061202     -0.428795      1.995997
  H       3.861886      0.022285      0.465125
  H       3.178770     -1.614159      0.667100
  H      -1.771276     -1.384761      1.241437
  H      -2.436957      2.635247     -2.548987
  H       0.548305      1.383983     -1.086215
  O      -4.658239     -2.597361     -1.540418
  H      -4.350086     -1.985749     -0.837155
  H      -5.332821     -3.139455     -1.119805
  O      -5.602892      3.119505     -0.277931
  H      -6.168702      3.634771     -0.864156
  H      -4.789916      2.948874     -0.786736
  O      -5.619133      0.778563      2.068540
  H      -4.874717      0.246656      1.714780
  H      -5.271680      1.677814      2.130188
  O      -5.614473     -0.452280     -3.346073
  H      -4.859694      0.039860     -3.681905
  H      -5.261423     -1.312640     -3.061274
32
Coordinates from ORCA-job pb_P2_cplx E -1182.715793353120
  Pb     -5.882442      0.502358     -0.800858
  C       3.027283     -0.548408      0.925694
  O       1.823173     -0.045937      0.352025
  C       0.688006     -0.622843      0.761262
  O       0.682971     -1.529826      1.576667
  C      -0.509612     -0.062662      0.128562
  C      -1.754039     -0.594567      0.486012
  C      -2.918893     -0.100785     -0.078492
  O      -4.127505     -0.587758      0.229530
  C      -2.850716      0.942202     -1.023564
  O      -3.932703      1.431023     -1.597485
  C      -1.593594      1.454396     -1.368366
  O      -1.534312      2.467765     -2.291554
  C      -0.428837      0.969385     -0.809119
  H       3.025263     -0.414880      2.008061
  H       3.833248      0.033974      0.484365
  H       3.159709     -1.603262      0.681816
  H      -1.798043     -1.397512      1.211449
  H      -2.450172      2.645650     -2.555190
  H       0.526897      1.387575     -1.095695
  O      -4.622886     -2.641233     -1.590898
  H      -4.347999     -2.014929     -0.884219
  H      -5.302808     -3.186717     -1.185782
  O      -5.569894      3.163048     -0.223588
  H      -6.126599      3.696566     -0.801807
  H      -4.782728      2.951273     -0.760630
  O      -5.557275      0.813747      2.075441
  H      -4.835642      0.276993      1.689017
  H      -5.199651      1.712961      2.115460
  O      -5.562496     -0.499833     -3.290072
  H      -4.805563     -0.017396     -3.637169
  H      -5.208692     -1.343638     -2.952499
32
Coordinates from ORCA-job pb_P2_cplx E -1182.717004969911
  Pb     -5.895938      0.518759     -0.797015
  C       2.992923     -0.537398      0.942542
  O       1.791361     -0.042179      0.355820
  C       0.658187     -0.632723      0.747686
  O       0.649325     -1.550182      1.550163
  C      -0.537372     -0.073398      0.106866
  C      -1.780424     -0.613958      0.450790
  C      -2.949140     -0.113861     -0.113500
  O      -4.158369     -0.605984      0.190244
  C      -2.875285      0.945629     -1.036813
  O      -3.955774      1.445033     -1.597410
  C      -1.617204      1.464503     -1.372325
  O      -1.559331      2.492116     -2.275501
  C      -0.453362      0.973782     -0.816548
  H       2.978712     -0.408812      2.024955
  H       3.798803      0.055388      0.514569
  H       3.141254     -1.588680      0.694983
  H      -1.831794     -1.425478      1.166111
  H      -2.476368      2.673658     -2.532819
  H       0.499831      1.403732     -1.095077
  O      -4.579544     -2.687733     -1.647876
  H      -4.333649     -2.053744     -0.935313
  H      -5.260507     -3.238956     -1.255516
  O      -5.526682      3.213209     -0.197509
  H      -6.073928      3.764480     -0.768500
  H      -4.763619      2.966007     -0.753019
  O      -5.474340      0.864320      2.084790
  H      -4.788470      0.310340      1.674299
  H      -5.093988      1.754148      2.097559
  O      -5.526794     -0.560610     -3.219630
  H      -4.767393     -0.089263     -3.575069
  H      -5.167670     -1.385414     -2.833564
32
Coordinates from ORCA-job pb_P2_cplx E -1182.717796187463
  Pb     -5.880880      0.527116     -0.813580
  C       2.976283     -0.522011      0.960756
  O       1.775767     -0.035247      0.361978
  C       0.646622     -0.649120      0.727907
  O       0.638946     -1.581967      1.511786
  C      -0.548586     -0.089699      0.084195
  C      -1.787867     -0.644168      0.408868
  C      -2.962785     -0.139012     -0.151350
  O      -4.171508     -0.640303      0.147561
  C      -2.881345      0.947095     -1.046957
  O      -3.963623      1.465408     -1.587921
  C      -1.623618      1.481586     -1.365552
  O      -1.576142      2.532131     -2.236551
  C      -0.462515      0.981502     -0.814208
  H       2.943396     -0.409817      2.044390
  H       3.778003      0.090412      0.553157
  H       3.144586     -1.567348      0.702693
  H      -1.850923     -1.469838      1.107172
  H      -2.496266      2.715743     -2.482237
  H       0.486349      1.429581     -1.079716
  O      -4.584309     -2.737002     -1.678315
  H      -4.332562     -2.111308     -0.966285
  H      -5.269562     -3.284473     -1.278223
  O      -5.504245      3.269496     -0.206018
  H      -6.056872      3.812003     -0.780539
  H      -4.743763      3.026005     -0.764724
  O      -5.416985      0.905269      2.089797
  H      -4.755553      0.332392      1.679045
  H      -5.016689      1.784327      2.076855
  O      -5.523267     -0.610497     -3.158782
  H      -4.751452     -0.145138     -3.511105
  H      -5.165185     -1.426389     -2.755722
32
Coordinates from ORCA-job pb_P2_cplx E -1182.718155153928
  Pb     -5.920764      0.530267     -0.837703
  C       2.947290     -0.532440      0.955478
  O       1.745871     -0.035901      0.365415
  C       0.616089     -0.659740      0.716132
  O       0.611935     -1.603978      1.487204
  C      -0.579539     -0.091382      0.083962
  C      -1.818117     -0.653374      0.394100
  C      -2.988274     -0.144583     -0.164462
  O      -4.197609     -0.646802      0.121637
  C      -2.906579      0.955278     -1.045240
  O      -3.991262      1.483457     -1.588904
  C      -1.650138      1.503561     -1.345766
  O      -1.605879      2.567942     -2.199406
  C      -0.493160      0.995024     -0.794219
  H       2.907009     -0.446721      2.041802
  H       3.746276      0.091819      0.561926
  H       3.113641     -1.573341      0.676780
  H      -1.885289     -1.490418      1.078528
  H      -2.524957      2.752543     -2.448810
  H       0.456320      1.448642     -1.047075
  O      -4.495348     -2.748141     -1.694923
  H      -4.288820     -2.107044     -0.982937
  H      -5.172217     -3.307032     -1.315138
  O      -5.473738      3.278468     -0.217861
  H      -6.014462      3.850698     -0.771945
  H      -4.729492      2.997312     -0.784502
  O      -5.338763      0.969944      2.080222
  H      -4.717977      0.364271      1.651617
  H      -4.912698      1.822356      2.053818
  O      -5.506756     -0.666518     -3.108598
  H      -4.749368     -0.195888     -3.470808
  H      -5.119776     -1.471548     -2.671953
32
Coordinates from ORCA-job pb_P2_cplx E -1182.718720491292
  Pb     -5.915643      0.516392     -0.846052
  C       2.961593     -0.570019      0.922339
  O       1.757967     -0.050086      0.358093
  C       0.625013     -0.671487      0.707802
  O       0.624765     -1.627509      1.465384
  C      -0.572334     -0.086963      0.097813
  C      -1.811457     -0.654588      0.397868
  C      -2.978198     -0.142638     -0.152356
  O      -4.183389     -0.660377      0.121557
  C      -2.899411      0.971386     -1.018525
  O      -3.984949      1.506308     -1.560213
  C      -1.645192      1.531047     -1.303438
  O      -1.600691      2.608387     -2.143440
  C      -0.488857      1.013850     -0.758666
  H       2.931098     -0.508946      2.011283
  H       3.761169      0.054887      0.531988
  H       3.110138     -1.607924      0.620560
  H      -1.873969     -1.505476      1.065741
  H      -2.517236      2.796705     -2.398410
  H       0.461445      1.469814     -1.003281
  O      -4.467280     -2.750544     -1.673689
  H      -4.252626     -2.116075     -0.958302
  H      -5.142651     -3.322584     -1.296627
  O      -5.551744      3.313303     -0.300419
  H      -6.096969      3.855815     -0.880055
  H      -4.774347      3.060508     -0.827980
  O      -5.376046      0.987798      2.080755
  H      -4.747883      0.370765      1.674316
  H      -4.949959      1.847457      2.038749
  O      -5.494015     -0.695914     -3.084956
  H      -4.746434     -0.201057     -3.431200
  H      -5.098458     -1.495505     -2.678268
32
Coordinates from ORCA-job pb_P2_cplx E -1182.718919149642
  Pb     -5.908306      0.514838     -0.856186
  C       2.961065     -0.583165      0.911793
  O       1.757952     -0.055793      0.355709
  C       0.624040     -0.673583      0.706822
  O       0.620732     -1.632532      1.460262
  C      -0.572525     -0.083400      0.099331
  C      -1.812819     -0.652826      0.394708
  C      -2.978888     -0.139337     -0.152222
  O      -4.183018     -0.665162      0.115177
  C      -2.901969      0.976795     -1.015108
  O      -3.984491      1.511772     -1.558410
  C      -1.647305      1.535890     -1.294966
  O      -1.600632      2.618806     -2.131003
  C      -0.488838      1.019826     -0.753060
  H       2.938070     -0.524650      2.000909
  H       3.763549      0.038066      0.521016
  H       3.105035     -1.619648      0.603374
  H      -1.872980     -1.507531      1.057846
  H      -2.517055      2.805958     -2.386881
  H       0.461881      1.476556     -0.994097
  O      -4.451490     -2.762482     -1.666868
  H      -4.242436     -2.125709     -0.952560
  H      -5.132634     -3.334322     -1.292984
  O      -5.574926      3.330444     -0.296558
  H      -6.116878      3.862026     -0.888925
  H      -4.793928      3.080315     -0.820074
  O      -5.391823      1.000184      2.065220
  H      -4.758387      0.378665      1.663169
  H      -4.963175      1.863315      2.016792
  O      -5.473840     -0.705511     -3.066165
  H      -4.724198     -0.202294     -3.413431
  H      -5.076336     -1.508783     -2.654255
32
Coordinates from ORCA-job pb_P2_cplx E -1182.719095341600
  Pb     -5.912050      0.517567     -0.877036
  C       2.959144     -0.593946      0.901890
  O       1.756280     -0.059188      0.353009
  C       0.622096     -0.676191      0.702513
  O       0.616435     -1.639500      1.450101
  C      -0.573950     -0.079995      0.099267
  C      -1.814695     -0.651638      0.390365
  C      -2.981781     -0.134552     -0.151934
  O      -4.185588     -0.663421      0.111672
  C      -2.905427      0.984284     -1.011543
  O      -3.985610      1.520351     -1.558902
  C      -1.650549      1.545190     -1.285493
  O      -1.604023      2.634905     -2.113868
  C      -0.490453      1.028319     -0.747000
  H       2.940880     -0.542269      1.991169
  H       3.763222      0.026731      0.513290
  H       3.099734     -1.628059      0.584904
  H      -1.875309     -1.510222      1.048378
  H      -2.521753      2.819131     -2.367807
  H       0.460445      1.487047     -0.983423
  O      -4.435136     -2.770030     -1.646501
  H      -4.232953     -2.129994     -0.932779
  H      -5.119738     -3.341184     -1.279301
  O      -5.585055      3.342616     -0.295771
  H      -6.116840      3.882822     -0.890091
  H      -4.798032      3.095856     -0.813582
  O      -5.406049      1.007415      2.043959
  H      -4.770111      0.380999      1.661115
  H      -4.968030      1.865197      2.002560
  O      -5.457104     -0.724901     -3.057209
  H      -4.709002     -0.223427     -3.413180
  H      -5.055546     -1.533184     -2.650400
32
Coordinates from ORCA-job pb_P2_cplx E -1182.719363282402
  Pb     -5.931286      0.512493     -0.888076
  C       2.943375     -0.629111      0.872500
  O       1.740805     -0.075467      0.342905
  C       0.606115     -0.692520      0.686346
  O       0.596108     -1.668821      1.416424
  C      -0.589105     -0.078015      0.099478
  C      -1.831088     -0.655335      0.381550
  C      -3.000182     -0.123819     -0.145159
  O      -4.207456     -0.659809      0.106842
  C      -2.924171      1.007687     -0.990634
  O      -4.002720      1.544171     -1.539005
  C      -1.669621      1.571944     -1.252209
  O      -1.621503      2.677937     -2.060626
  C      -0.506287      1.047377     -0.726416
  H       2.936091     -0.598515      1.962242
  H       3.750522     -0.007395      0.491355
  H       3.076537     -1.656081      0.531262
  H      -1.888716     -1.526766      1.022576
  H      -2.541729      2.857603     -2.310641
  H       0.446021      1.508717     -0.952040
  O      -4.337798     -2.776004     -1.623100
  H      -4.181496     -2.120208     -0.895993
  H      -5.025788     -3.359620     -1.286025
  O      -5.619760      3.381643     -0.323903
  H      -6.117294      3.933879     -0.936786
  H      -4.826538      3.113034     -0.818461
  O      -5.414635      1.052452      2.002549
  H      -4.785058      0.396369      1.656227
  H      -4.943440      1.892720      1.944093
  O      -5.407972     -0.778684     -3.005082
  H      -4.678024     -0.269313     -3.378476
  H      -4.980460     -1.585814     -2.605346
32
Coordinates from ORCA-job pb_P2_cplx E -1182.719535155050
  Pb     -5.931539      0.515837     -0.902712
  C       2.940643     -0.627324      0.873839
  O       1.738107     -0.074751      0.341504
  C       0.603296     -0.696184      0.678417
  O       0.594731     -1.674579      1.406201
  C      -0.591669     -0.080277      0.094114
  C      -1.833446     -0.656972      0.374767
  C      -3.002031     -0.122780     -0.150816
  O      -4.207228     -0.657784      0.102453
  C      -2.925060      1.009092     -0.991778
  O      -4.001002      1.550013     -1.539855
  C      -1.670287      1.575379     -1.252060
  O      -1.623154      2.681190     -2.060372
  C      -0.508552      1.048012     -0.727246
  H       2.927318     -0.602482      1.963919
  H       3.746342     -0.000804      0.497897
  H       3.076583     -1.653263      0.529785
  H      -1.891973     -1.530442      1.012993
  H      -2.543379      2.859130     -2.312403
  H       0.444614      1.508320     -0.951327
  O      -4.332521     -2.780416     -1.595918
  H      -4.183124     -2.119945     -0.876709
  H      -5.026228     -3.357732     -1.261019
  O      -5.619406      3.394631     -0.304923
  H      -6.109448      3.947432     -0.922303
  H      -4.827093      3.120004     -0.796222
  O      -5.414953      1.044985      1.975550
  H      -4.782209      0.388058      1.642884
  H      -4.943810      1.881530      1.916337
  O      -5.399173     -0.783694     -3.001034
  H      -4.670331     -0.273636     -3.377231
  H      -4.970571     -1.593819     -2.608359
32
Coordinates from ORCA-job pb_P2_cplx E -1182.719751788598
  Pb     -5.930019      0.522594     -0.898118
  C       2.934206     -0.613202      0.887834
  O       1.732444     -0.070856      0.341622
  C       0.598719     -0.702110      0.666885
  O       0.593574     -1.683313      1.391352
  C      -0.596412     -0.091018      0.079160
  C      -1.836699     -0.669539      0.358232
  C      -3.004757     -0.130973     -0.164480
  O      -4.210515     -0.661444      0.092833
  C      -2.928042      1.007374     -0.996244
  O      -4.006544      1.555907     -1.532859
  C      -1.672900      1.573691     -1.260023
  O      -1.626611      2.681104     -2.064196
  C      -0.513571      1.040616     -0.737556
  H       2.906135     -0.589895      1.977988
  H       3.736894      0.022017      0.520598
  H       3.081994     -1.638803      0.546920
  H      -1.893588     -1.545039      0.993760
  H      -2.545807      2.864014     -2.315974
  H       0.439897      1.500871     -0.960634
  O      -4.335227     -2.794955     -1.582185
  H      -4.194079     -2.128632     -0.870319
  H      -5.038019     -3.363381     -1.249939
  O      -5.612801      3.423396     -0.276603
  H      -6.095895      3.977432     -0.899049
  H      -4.826032      3.128268     -0.770220
  O      -5.394448      1.042791      1.952721
  H      -4.766380      0.379036      1.629245
  H      -4.917982      1.874992      1.877490
  O      -5.388201     -0.792038     -2.989515
  H      -4.661607     -0.280551     -3.368727
  H      -4.964282     -1.601625     -2.601627
32
Coordinates from ORCA-job pb_P2_cplx E -1182.719973605021
  Pb     -5.934055      0.520816     -0.887098
  C       2.924014     -0.603082      0.895109
  O       1.722732     -0.069596      0.338076
  C       0.590396     -0.710988      0.651811
  O       0.589111     -1.697395      1.369358
  C      -0.605632     -0.102932      0.062885
  C      -1.844194     -0.681870      0.341684
  C      -3.011841     -0.138300     -0.176179
  O      -4.218341     -0.665353      0.087076
  C      -2.934732      1.008537     -0.995066
  O      -4.017346      1.567452     -1.512691
  C      -1.679195      1.574572     -1.263877
  O      -1.637065      2.686855     -2.058981
  C      -0.522454      1.033330     -0.746885
  H       2.881833     -0.584023      1.985106
  H       3.723105      0.041831      0.537695
  H       3.083356     -1.627238      0.554790
  H      -1.900515     -1.560532      0.972635
  H      -2.555762      2.877809     -2.305787
  H       0.430953      1.493348     -0.970109
  O      -4.302910     -2.811760     -1.551636
  H      -4.189449     -2.131732     -0.848110
  H      -5.016583     -3.372755     -1.230122
  O      -5.592263      3.466707     -0.252003
  H      -6.052277      4.012697     -0.898106
  H      -4.821459      3.126009     -0.737241
  O      -5.388314      1.043168      1.917823
  H      -4.764916      0.360501      1.614213
  H      -4.901713      1.867218      1.812561
  O      -5.380946     -0.800176     -2.975324
  H      -4.661034     -0.281000     -3.357176
  H      -4.949055     -1.605387     -2.596059
32
Coordinates from ORCA-job pb_P2_cplx E -1182.720227312375
  Pb     -5.943759      0.518827     -0.888436
  C       2.912703     -0.608727      0.882451
  O       1.711182     -0.071640      0.329725
  C       0.579433     -0.717403      0.637557
  O       0.579768     -1.712262      1.343028
  C      -0.617782     -0.105720      0.054025
  C      -1.855699     -0.686870      0.330125
  C      -3.022765     -0.139486     -0.183426
  O      -4.229182     -0.669387      0.076851
  C      -2.947969      1.017394     -0.987642
  O      -4.034113      1.583606     -1.490364
  C      -1.692562      1.585634     -1.254757
  O      -1.650491      2.706396     -2.036291
  C      -0.535717      1.037892     -0.744769
  H       2.868529     -0.600472      1.972498
  H       3.710943      0.041362      0.532709
  H       3.074374     -1.629295      0.532829
  H      -1.909619     -1.571380      0.952954
  H      -2.567609      2.907540     -2.278808
  H       0.417033      1.500105     -0.966343
  O      -4.256140     -2.844772     -1.520919
  H      -4.177263     -2.151807     -0.825810
  H      -4.982037     -3.402189     -1.222757
  O      -5.575411      3.524861     -0.235258
  H      -6.004549      4.070260     -0.903255
  H      -4.820312      3.133171     -0.708845
  O      -5.405449      1.057647      1.878551
  H      -4.787370      0.357306      1.604491
  H      -4.910458      1.875088      1.746255
  O      -5.338191     -0.830228     -2.949099
  H      -4.621159     -0.309608     -3.335350
  H      -4.904908     -1.629112     -2.563546
32
Coordinates from ORCA-job pb_P2_cplx E -1182.720579346655
  Pb     -5.950413      0.511487     -0.895720
  C       2.907347     -0.615746      0.859171
  O       1.703846     -0.070322      0.319849
  C       0.573461     -0.718162      0.626504
  O       0.574857     -1.721295      1.319445
  C      -0.626119     -0.101239      0.051538
  C      -1.863597     -0.685759      0.325748
  C      -3.031735     -0.136743     -0.183836
  O      -4.239507     -0.669969      0.071790
  C      -2.958457      1.029314     -0.977674
  O      -4.050586      1.599320     -1.467165
  C      -1.704798      1.600754     -1.241863
  O      -1.662916      2.729546     -2.009359
  C      -0.545916      1.048771     -0.738301
  H       2.868930     -0.621345      1.949264
  H       3.705185      0.037823      0.514850
  H       3.067127     -1.631344      0.495140
  H      -1.917347     -1.575038      0.941789
  H      -2.579455      2.940192     -2.244253
  H       0.404861      1.515338     -0.959835
  O      -4.217494     -2.890934     -1.482327
  H      -4.172916     -2.183617     -0.796722
  H      -4.959087     -3.442607     -1.210429
  O      -5.534402      3.585530     -0.224388
  H      -5.929470      4.132264     -0.912259
  H      -4.802708      3.131713     -0.684906
  O      -5.459487      1.068299      1.848336
  H      -4.839528      0.353107      1.614108
  H      -4.962250      1.880770      1.695650
  O      -5.295083     -0.860594     -2.944373
  H      -4.573227     -0.347994     -3.332832
  H      -4.865668     -1.654787     -2.548568
32
Coordinates from ORCA-job pb_P2_cplx E -1182.720896498614
  Pb     -5.965000      0.496424     -0.915516
  C       2.899983     -0.627570      0.830398
  O       1.693817     -0.068491      0.312737
  C       0.565327     -0.719054      0.615869
  O       0.566471     -1.733481      1.291370
  C      -0.636367     -0.092847      0.053204
  C      -1.873356     -0.684635      0.317202
  C      -3.044373     -0.132789     -0.184362
  O      -4.247073     -0.676743      0.061286
  C      -2.974565      1.041562     -0.963220
  O      -4.067225      1.616789     -1.446085
  C      -1.723282      1.620514     -1.216333
  O      -1.679733      2.762189     -1.964799
  C      -0.559726      1.067374     -0.720847
  H       2.873225     -0.653877      1.920300
  H       3.698358      0.029280      0.493052
  H       3.055107     -1.635113      0.443207
  H      -1.928146     -1.582478      0.920792
  H      -2.595850      2.979292     -2.194356
  H       0.387668      1.543387     -0.937034
  O      -4.169633     -2.935532     -1.448899
  H      -4.158903     -2.218996     -0.772202
  H      -4.919024     -3.488635     -1.206211
  O      -5.482200      3.648759     -0.234075
  H      -5.842357      4.193743     -0.941133
  H      -4.785632      3.127550     -0.676224
  O      -5.507364      1.084514      1.825001
  H      -4.891890      0.358917      1.621736
  H      -5.008599      1.896024      1.652778
  O      -5.257514     -0.899671     -2.930379
  H      -4.529737     -0.395790     -3.316558
  H      -4.828960     -1.683886     -2.512324
32
Coordinates from ORCA-job pb_P2_cplx E -1182.721210389162
  Pb     -5.967174      0.476875     -0.942633
  C       2.896693     -0.635730      0.803069
  O       1.687244     -0.064445      0.307280
  C       0.561471     -0.721188      0.602256
  O       0.564041     -1.747575      1.259132
  C      -0.642889     -0.084450      0.056112
  C      -1.878469     -0.685754      0.308940
  C      -3.053065     -0.129506     -0.181676
  O      -4.253563     -0.681432      0.051090
  C      -2.985316      1.055753     -0.946974
  O      -4.080280      1.631629     -1.430705
  C      -1.738099      1.644578     -1.184813
  O      -1.693953      2.798753     -1.915172
  C      -0.570503      1.089601     -0.697292
  H       2.880161     -0.686674      1.892159
  H       3.694150      0.027150      0.475040
  H       3.048541     -1.633352      0.389815
  H      -1.933756     -1.594116      0.896695
  H      -2.611093      3.014267     -2.143068
  H       0.374094      1.575183     -0.904311
  O      -4.143771     -2.979316     -1.406830
  H      -4.160229     -2.250102     -0.742208
  H      -4.904366     -3.527936     -1.185110
  O      -5.429253      3.708837     -0.243948
  H      -5.765441      4.254728     -0.961282
  H      -4.770740      3.124798     -0.673701
  O      -5.553908      1.100365      1.800932
  H      -4.937729      0.368072      1.629257
  H      -5.053936      1.902059      1.610240
  O      -5.225305     -0.943334     -2.931460
  H      -4.489836     -0.448873     -3.314943
  H      -4.800272     -1.722135     -2.497519
32
Coordinates from ORCA-job pb_P2_cplx E -1182.721640181902
  Pb     -5.960034      0.445957     -0.984933
  C       2.895441     -0.642172      0.769100
  O       1.681708     -0.058430      0.299523
  C       0.558577     -0.721215      0.587068
  O       0.564088     -1.759835      1.224563
  C      -0.648787     -0.071860      0.062089
  C      -1.882677     -0.682672      0.302292
  C      -3.060544     -0.122145     -0.177242
  O      -4.256521     -0.683397      0.037784
  C      -2.995014      1.070765     -0.927232
  O      -4.089000      1.639220     -1.419870
  C      -1.752866      1.672093     -1.146302
  O      -1.710066      2.838571     -1.861188
  C      -0.581253      1.117407     -0.666862
  H       2.892775     -0.717882      1.856847
  H       3.691206      0.026092      0.447500
  H       3.041391     -1.629306      0.329025
  H      -1.936262     -1.603606      0.870512
  H      -2.628319      3.045265     -2.094189
  H       0.361151      1.611701     -0.862344
  O      -4.134923     -3.025318     -1.348332
  H      -4.174678     -2.285693     -0.701350
  H      -4.905582     -3.567852     -1.151449
  O      -5.355501      3.779333     -0.241915
  H      -5.668162      4.320038     -0.973748
  H      -4.754235      3.128087     -0.661860
  O      -5.619835      1.101774      1.770387
  H      -4.992000      0.378211      1.627465
  H      -5.126116      1.905944      1.567145
  O      -5.184485     -0.994722     -2.945504
  H      -4.435948     -0.510267     -3.320307
  H      -4.770082     -1.767357     -2.488299
32
Coordinates from ORCA-job pb_P2_cplx E -1182.722096503424
  Pb     -5.948458      0.390301     -1.038192
  C       2.894249     -0.647842      0.726375
  O       1.673970     -0.050964      0.291231
  C       0.553897     -0.722423      0.570727
  O       0.567476     -1.776878      1.182567
  C      -0.658101     -0.059672      0.075564
  C      -1.887747     -0.685375      0.296648
  C      -3.068484     -0.120170     -0.169199
  O      -4.259669     -0.692611      0.020570
  C      -3.006770      1.086832     -0.895930
  O      -4.099654      1.642559     -1.406183
  C      -1.771171      1.707323     -1.087378
  O      -1.734295      2.890776     -1.780396
  C      -0.597346      1.150951     -0.617338
  H       2.909038     -0.752542      1.811737
  H       3.685287      0.027703      0.408527
  H       3.029973     -1.623167      0.256998
  H      -1.935174     -1.624311      0.835231
  H      -2.652940      3.081663     -2.026933
  H       0.343569      1.654247     -0.794427
  O      -4.127747     -3.063805     -1.285790
  H      -4.192426     -2.310271     -0.659998
  H      -4.905398     -3.603414     -1.111545
  O      -5.259011      3.863744     -0.256936
  H      -5.558391      4.392262     -1.002316
  H      -4.743097      3.134360     -0.664822
  O      -5.679945      1.110472      1.740424
  H      -5.037945      0.399719      1.616588
  H      -5.194742      1.912190      1.517625
  O      -5.146227     -1.066226     -2.966987
  H      -4.388936     -0.582502     -3.324388
  H      -4.740334     -1.826195     -2.483682
32
Coordinates from ORCA-job pb_P2_cplx E -1182.722325946659
  Pb     -5.948274      0.375524     -1.033719
  C       2.895205     -0.626529      0.746892
  O       1.675372     -0.041287      0.293921
  C       0.555794     -0.716892      0.570726
  O       0.573444     -1.768234      1.188384
  C      -0.656566     -0.063171      0.066571
  C      -1.883689     -0.692411      0.287580
  C      -3.064367     -0.128016     -0.177057
  O      -4.257711     -0.696617      0.019166
  C      -3.005264      1.079866     -0.903113
  O      -4.100315      1.626979     -1.412297
  C      -1.769523      1.701964     -1.100094
  O      -1.740805      2.883736     -1.796058
  C      -0.597392      1.146641     -0.628880
  H       2.899834     -0.716637      1.833841
  H       3.684041      0.049546      0.425280
  H       3.038256     -1.608658      0.294101
  H      -1.925030     -1.630341      0.828284
  H      -2.659824      3.067303     -2.046624
  H       0.344664      1.647982     -0.805225
  O      -4.162534     -3.049170     -1.298916
  H      -4.212985     -2.298610     -0.668115
  H      -4.938641     -3.587740     -1.117853
  O      -5.213684      3.857469     -0.244127
  H      -5.529204      4.391320     -0.979035
  H      -4.718951      3.123771     -0.660136
  O      -5.663011      1.095480      1.757791
  H      -5.015230      0.393036      1.616069
  H      -5.182785      1.902123      1.549301
  O      -5.171825     -1.068406     -2.982116
  H      -4.418234     -0.583835     -3.343719
  H      -4.767318     -1.829457     -2.502446
32
Coordinates from ORCA-job pb_P2_cplx E -1182.722616124297
  Pb     -5.958571      0.355164     -1.034639
  C       2.879490     -0.581294      0.786457
  O       1.661457     -0.019825      0.297428
  C       0.546010     -0.713672      0.554752
  O       0.573265     -1.768580      1.165969
  C      -0.668351     -0.079628      0.032545
  C      -1.888374     -0.721388      0.246027
  C      -3.069644     -0.156082     -0.212955
  O      -4.264295     -0.720903     -0.002075
  C      -3.022891      1.064230     -0.917810
  O      -4.125853      1.615728     -1.403230
  C      -1.786214      1.693978     -1.121233
  O      -1.773477      2.882217     -1.800628
  C      -0.615893      1.136115     -0.654655
  H       2.854713     -0.658891      1.874341
  H       3.662411      0.105807      0.474938
  H       3.047780     -1.568602      0.354536
  H      -1.917030     -1.661647      0.783001
  H      -2.692152      3.065871     -2.049958
  H       0.325863      1.640410     -0.824794
  O      -4.184314     -3.059591     -1.295171
  H      -4.242321     -2.300524     -0.670656
  H      -4.964462     -3.592539     -1.122496
  O      -5.100781      3.907007     -0.186127
  H      -5.412234      4.450952     -0.917969
  H      -4.687085      3.130176     -0.619823
  O      -5.607692      1.092891      1.737130
  H      -4.968140      0.378404      1.593968
  H      -5.115986      1.899057      1.522571
  O      -5.191542     -1.099869     -2.968470
  H      -4.446080     -0.614595     -3.347128
  H      -4.784157     -1.863645     -2.495473
32
Coordinates from ORCA-job pb_P2_cplx E -1182.722782348448
  Pb     -5.974629      0.343303     -1.035123
  C       2.875642     -0.571334      0.791591
  O       1.656384     -0.012211      0.303371
  C       0.542277     -0.705835      0.566545
  O       0.570518     -1.759544      1.179139
  C      -0.673390     -0.076973      0.039879
  C      -1.892616     -0.719797      0.256986
  C      -3.073111     -0.162109     -0.212517
  O      -4.268704     -0.729996     -0.000011
  C      -3.029435      1.054737     -0.923826
  O      -4.133225      1.602314     -1.412689
  C      -1.793548      1.688067     -1.125638
  O      -1.782235      2.872383     -1.809240
  C      -0.622818      1.135922     -0.652844
  H       2.853246     -0.644273      1.879719
  H       3.657945      0.114943      0.476549
  H       3.044863     -1.559971      0.363532
  H      -1.918955     -1.656371      0.800119
  H      -2.700351      3.055245     -2.060756
  H       0.318199      1.641259     -0.824107
  O      -4.189757     -3.048757     -1.326280
  H      -4.242643     -2.293174     -0.693423
  H      -4.966821     -3.588153     -1.145518
  O      -5.061432      3.900781     -0.185264
  H      -5.383784      4.448327     -0.906890
  H      -4.673570      3.117610     -0.624093
  O      -5.576570      1.095948      1.755822
  H      -4.940160      0.385340      1.585193
  H      -5.087355      1.901353      1.554940
  O      -5.207036     -1.106330     -2.978256
  H      -4.466143     -0.618184     -3.358232
  H      -4.797339     -1.867790     -2.500306
32
Coordinates from ORCA-job pb_P2_cplx E -1182.722919175307
  Pb     -5.978733      0.328841     -1.047069
  C       2.875158     -0.568843      0.776237
  O       1.653043     -0.004632      0.302828
  C       0.540569     -0.695399      0.574783
  O       0.567783     -1.747908      1.188595
  C      -0.677291     -0.064904      0.052286
  C      -1.897553     -0.706996      0.273827
  C      -3.078394     -0.158157     -0.206293
  O      -4.272742     -0.733300      0.002231
  C      -3.035268      1.051749     -0.925080
  O      -4.139210      1.592105     -1.414608
  C      -1.802743      1.688716     -1.123615
  O      -1.789931      2.869681     -1.811619
  C      -0.628694      1.144097     -0.646834
  H       2.865352     -0.645994      1.864101
  H       3.658089      0.115685      0.458192
  H       3.039835     -1.554687      0.340176
  H      -1.924577     -1.640344      0.822542
  H      -2.708322      3.054655     -2.060455
  H       0.310077      1.652441     -0.821892
  O      -4.196897     -3.059873     -1.326479
  H      -4.253469     -2.303948     -0.694057
  H      -4.976067     -3.599377     -1.149603
  O      -5.001040      3.908726     -0.172353
  H      -5.323633      4.460536     -0.890849
  H      -4.644768      3.115048     -0.615904
  O      -5.606926      1.086210      1.753947
  H      -4.961070      0.384740      1.581839
  H      -5.126667      1.902501      1.565281
  O      -5.190365     -1.117548     -2.992851
  H      -4.442701     -0.636887     -3.370266
  H      -4.789396     -1.880203     -2.508661
32
Coordinates from ORCA-job pb_P2_cplx E -1182.723052588532
  Pb     -5.981789      0.316279     -1.063097
  C       2.871927     -0.565041      0.768400
  O       1.646637      0.001263      0.306853
  C       0.536952     -0.690879      0.581626
  O       0.565139     -1.741959      1.197428
  C      -0.683514     -0.060417      0.063431
  C      -1.903214     -0.704753      0.285805
  C      -3.084916     -0.164128     -0.202040
  O      -4.276689     -0.746776      0.001738
  C      -3.044968      1.043932     -0.927592
  O      -4.151009      1.587852     -1.417002
  C      -1.815063      1.684492     -1.121388
  O      -1.797594      2.863724     -1.811828
  C      -0.638274      1.145323     -0.640974
  H       2.870367     -0.650954      1.855599
  H       3.653776      0.121825      0.452256
  H       3.035883     -1.546256      0.321517
  H      -1.931296     -1.635950      0.838400
  H      -2.715383      3.054138     -2.058390
  H       0.297812      1.658049     -0.818089
  O      -4.195522     -3.065196     -1.331434
  H      -4.253793     -2.307151     -0.700037
  H      -4.972780     -3.605070     -1.149513
  O      -4.961594      3.926051     -0.159776
  H      -5.294117      4.479832     -0.873021
  H      -4.632250      3.124048     -0.607719
  O      -5.601931      1.089576      1.742179
  H      -4.956514      0.386956      1.563686
  H      -5.122866      1.907151      1.561089
  O      -5.183062     -1.127312     -2.994729
  H      -4.434119     -0.647280     -3.370653
  H      -4.782786     -1.894636     -2.514350
32
Coordinates from ORCA-job pb_P2_cplx E -1182.720701355051
  Pb     -6.030791      0.229629     -1.033395
  C       2.838698     -0.477739      0.793817
  O       1.606794      0.053779      0.312580
  C       0.509046     -0.644765      0.602762
  O       0.545681     -1.663707      1.270709
  C      -0.719167     -0.047923      0.059752
  C      -1.933679     -0.692013      0.312111
  C      -3.123891     -0.181715     -0.187885
  O      -4.298739     -0.776906      0.038687
  C      -3.100678      0.991154     -0.954743
  O      -4.226876      1.530216     -1.391390
  C      -1.882505      1.622138     -1.201780
  O      -1.850603      2.772684     -1.941176
  C      -0.691430      1.112216     -0.712821
  H       2.839206     -0.541114      1.882722
  H       3.613370      0.213478      0.468567
  H       3.023322     -1.462616      0.361726
  H      -1.960395     -1.594179      0.912424
  H      -2.766102      2.998316     -2.160744
  H       0.230558      1.635500     -0.930154
  O      -4.219726     -3.053130     -1.349137
  H      -4.281368     -2.267717     -0.732886
  H      -4.998173     -3.583598     -1.132691
  O      -4.548010      3.908159      0.018652
  H      -4.949819      4.505397     -0.624769
  H      -4.436027      3.034285     -0.493674
  O      -5.611917      1.021258      1.667114
  H      -4.943532      0.336266      1.455723
  H      -5.179197      1.872171      1.473898
  O      -5.171110     -1.094058     -3.014358
  H      -4.424183     -0.627605     -3.401463
  H      -4.795311     -1.891131     -2.589804
32
Coordinates from ORCA-job pb_P2_cplx E -1182.703930171249
  Pb     -5.947729      0.378909     -1.010323
  C       2.881974     -0.557681      0.793105
  O       1.670138      0.006043      0.301890
  C       0.552184     -0.672127      0.580104
  O       0.578547     -1.698858      1.240010
  C      -0.660826     -0.059972      0.037941
  C      -1.882687     -0.681138      0.290960
  C      -3.058680     -0.153276     -0.200337
  O      -4.233625     -0.732321      0.040674
  C      -3.030789      1.029283     -0.964678
  O      -4.152787      1.606074     -1.409296
  C      -1.794015      1.643058     -1.212451
  O      -1.753037      2.793488     -1.948515
  C      -0.618191      1.105533     -0.723241
  H       2.853277     -0.636245      1.881014
  H       3.669402      0.123223      0.481612
  H       3.036204     -1.545215      0.361490
  H      -1.919305     -1.585533      0.885286
  H      -2.664598      3.028136     -2.172008
  H       0.315004      1.609149     -0.934941
  O      -4.240952     -3.033021     -1.312818
  H      -4.274776     -2.280014     -0.693467
  H      -5.016165     -3.549544     -1.073750
  O      -4.945447      3.765793     -0.046848
  H      -5.358377      4.332321     -0.699895
  H      -4.634478      3.132106     -0.538813
  O      -5.672775      0.999167      1.657012
  H      -4.978981      0.348335      1.506198
  H      -5.287913      1.886629      1.414185
  O      -5.166067     -1.008573     -2.923020
  H      -4.404542     -0.524279     -3.314081
  H      -4.796541     -1.832721     -2.514622
32
Coordinates from ORCA-job pb_P2_cplx E -1182.722448415229
  Pb     -5.987161      0.309628     -1.036642
  C       2.878499     -0.508855      0.802308
  O       1.653367      0.030705      0.309051
  C       0.547915     -0.668784      0.586261
  O       0.579115     -1.704637      1.233754
  C      -0.672622     -0.067230      0.036407
  C      -1.888642     -0.707347      0.284715
  C      -3.076319     -0.180840     -0.201919
  O      -4.267372     -0.755147      0.030315
  C      -3.046591      1.017629     -0.964435
  O      -4.174616      1.571755     -1.418590
  C      -1.813290      1.638719     -1.204975
  O      -1.783758      2.793837     -1.936932
  C      -0.633218      1.110762     -0.716696
  H       2.856896     -0.579560      1.891841
  H       3.655076      0.188083      0.488462
  H       3.064745     -1.495589      0.371417
  H      -1.919262     -1.616622      0.872797
  H      -2.700049      3.011354     -2.159441
  H       0.297059      1.624251     -0.921276
  O      -4.292871     -3.065106     -1.320644
  H      -4.319569     -2.307194     -0.714614
  H      -5.075729     -3.562917     -1.085507
  O      -4.814973      3.877323      0.008371
  H      -5.220514      4.452494     -0.631863
  H      -4.575961      3.085432     -0.523472
  O      -5.648214      1.049928      1.681157
  H      -4.977951      0.370548      1.503642
  H      -5.228898      1.894113      1.461821
  O      -5.155914     -1.066177     -3.000850
  H      -4.386483     -0.623656     -3.387017
  H      -4.809249     -1.880172     -2.559072
32
Coordinates from ORCA-job pb_P2_cplx E -1182.713473420114
  Pb     -6.011579      0.337756     -1.086075
  C       2.844017     -0.504957      0.798348
  O       1.614281      0.000697      0.278389
  C       0.502936     -0.669940      0.582378
  O       0.545067     -1.653448      1.285850
  C      -0.714982     -0.070788      0.040547
  C      -1.933251     -0.677296      0.297511
  C      -3.113462     -0.143585     -0.196498
  O      -4.279288     -0.710635      0.040223
  C      -3.061183      1.012645     -0.956938
  O      -4.145929      1.575162     -1.445396
  C      -1.826983      1.628879     -1.206443
  O      -1.801649      2.765469     -1.970929
  C      -0.663246      1.085389     -0.719058
  H       2.821436     -0.510197      1.875845
  H       3.610130      0.158621      0.435209
  H       3.009995     -1.505864      0.446322
  H      -1.979489     -1.580018      0.887424
  H      -2.717478      2.972974     -2.215561
  H       0.276004      1.569998     -0.928696
  O      -4.132652     -3.042817     -1.346739
  H      -4.213025     -2.222153     -0.712487
  H      -4.907957     -3.614947     -1.124943
  O      -4.735839      3.858051      0.028212
  H      -5.155321      4.539320     -0.592985
  H      -4.438833      3.055202     -0.460190
  O      -5.640531      1.005513      1.688759
  H      -4.966960      0.345915      1.476067
  H      -5.195572      1.835619      1.521719
  O      -5.231289     -1.109950     -2.992857
  H      -4.490298     -0.599207     -3.379381
  H      -4.803620     -1.894674     -2.569254
32
Coordinates from ORCA-job pb_P2_cplx E -1182.722553602263
  Pb     -6.005193      0.295296     -1.060466
  C       2.868016     -0.515673      0.801830
  O       1.642480      0.024653      0.309663
  C       0.534213     -0.670913      0.591305
  O       0.559927     -1.700097      1.248818
  C      -0.683997     -0.061061      0.047129
  C      -1.905078     -0.696816      0.294369
  C      -3.093566     -0.157914     -0.189848
  O      -4.283321     -0.732614      0.036788
  C      -3.050323      1.021495     -0.954193
  O      -4.154430      1.555528     -1.442082
  C      -1.821575      1.642875     -1.190552
  O      -1.800358      2.793163     -1.936839
  C      -0.640018      1.119630     -0.702995
  H       2.851923     -0.582837      1.894882
  H       3.646819      0.178928      0.480404
  H       3.049703     -1.506836      0.369884
  H      -1.940112     -1.612513      0.875817
  H      -2.722967      2.971229     -2.171317
  H       0.295629      1.624919     -0.903589
  O      -4.215007     -3.037952     -1.343030
  H      -4.265941     -2.255136     -0.720780
  H      -4.981994     -3.575810     -1.115066
  O      -4.790152      3.845514     -0.020416
  H      -5.201611      4.450105     -0.646361
  H      -4.528015      3.054894     -0.530485
  O      -5.640080      1.058864      1.699918
  H      -4.960571      0.373005      1.497223
  H      -5.195256      1.896154      1.509490
  O      -5.212266     -1.076454     -2.999608
  H      -4.467017     -0.615664     -3.383595
  H      -4.826413     -1.871231     -2.567926
32
Coordinates from ORCA-job pb_P2_cplx E -1182.715251297904
  Pb     -5.966627      0.313112     -1.049269
  C       2.864777     -0.529553      0.804959
  O       1.654315     -0.010741      0.264885
  C       0.539649     -0.644048      0.585339
  O       0.570316     -1.626344      1.278450
  C      -0.679181     -0.051971      0.026108
  C      -1.891844     -0.682126      0.277891
  C      -3.071360     -0.172174     -0.223984
  O      -4.257714     -0.750918      0.012316
  C      -3.054395      1.034521     -0.974023
  O      -4.190399      1.597567     -1.430972
  C      -1.815925      1.658021     -1.211901
  O      -1.800408      2.801044     -1.941081
  C      -0.641763      1.116464     -0.727367
  H       2.853420     -0.479481      1.863591
  H       3.650384      0.073625      0.428033
  H       2.999741     -1.529514      0.510403
  H      -1.915880     -1.586632      0.864860
  H      -2.715356      3.022772     -2.169829
  H       0.291514      1.619010     -0.933789
  O      -4.289814     -3.077545     -1.317040
  H      -4.307848     -2.315354     -0.737704
  H      -5.062069     -3.592719     -1.091660
  O      -4.766740      3.883841      0.075037
  H      -5.197378      4.436678     -0.547464
  H      -4.608413      3.112656     -0.525430
  O      -5.619649      1.014991      1.672313
  H      -4.958824      0.360960      1.487350
  H      -5.226863      1.876900      1.448766
  O      -5.150595     -1.091328     -3.004988
  H      -4.367004     -0.637323     -3.386711
  H      -4.804620     -1.907661     -2.548716
32
Coordinates from ORCA-job pb_P2_cplx E -1182.722132211434
  Pb     -5.982365      0.311435     -1.063601
  C       2.869299     -0.516615      0.792339
  O       1.642430      0.040379      0.310723
  C       0.535802     -0.666267      0.580366
  O       0.574950     -1.712385      1.218493
  C      -0.686216     -0.058089      0.038372
  C      -1.901787     -0.691788      0.284526
  C      -3.082884     -0.169469     -0.211539
  O      -4.269148     -0.743398      0.023258
  C      -3.052281      1.029416     -0.963621
  O      -4.172792      1.585036     -1.432765
  C      -1.816917      1.657167     -1.195319
  O      -1.798230      2.810187     -1.926966
  C      -0.644632      1.123791     -0.702935
  H       2.839224     -0.623220      1.891854
  H       3.641203      0.201131      0.494262
  H       3.057259     -1.506263      0.331785
  H      -1.930536     -1.604716      0.866193
  H      -2.713152      3.022101     -2.164517
  H       0.290534      1.628421     -0.905420
  O      -4.270380     -3.085584     -1.314945
  H      -4.302004     -2.310549     -0.709285
  H      -5.054179     -3.606540     -1.091436
  O      -4.771170      3.889264      0.030306
  H      -5.194294      4.479485     -0.607959
  H      -4.557488      3.103005     -0.519537
  O      -5.651617      1.052711      1.676466
  H      -4.983234      0.391833      1.494535
  H      -5.245992      1.904539      1.464124
  O      -5.146241     -1.114693     -2.994977
  H      -4.367260     -0.659704     -3.374789
  H      -4.792454     -1.923892     -2.539619
32
Coordinates from ORCA-job pb_P2_cplx E -1182.714985701876
  Pb     -6.020471      0.248700     -1.068194
  C       2.880645     -0.501581      0.777294
  O       1.649281     -0.015517      0.268336
  C       0.543578     -0.678955      0.601818
  O       0.553627     -1.675906      1.288738
  C      -0.675159     -0.077254      0.049724
  C      -1.902409     -0.723589      0.297187
  C      -3.100876     -0.174387     -0.181211
  O      -4.299266     -0.752902      0.032095
  C      -3.050250      1.006400     -0.940664
  O      -4.142677      1.520857     -1.432779
  C      -1.831396      1.623429     -1.171903
  O      -1.804205      2.807623     -1.893676
  C      -0.633358      1.110295     -0.699175
  H       2.911321     -0.437794      1.837840
  H       3.668089      0.115135      0.378210
  H       3.048136     -1.501210      0.456905
  H      -1.934358     -1.642898      0.877256
  H      -2.734889      2.981176     -2.109047
  H       0.300041      1.628241     -0.893947
  O      -4.247795     -3.036921     -1.375040
  H      -4.297994     -2.278029     -0.732863
  H      -5.015006     -3.571103     -1.160018
  O      -4.774716      3.839301     -0.050145
  H      -5.174464      4.464564     -0.681823
  H      -4.507741      3.029561     -0.499998
  O      -5.703656      1.106622      1.697963
  H      -5.003176      0.394031      1.510269
  H      -5.245788      1.928445      1.525493
  O      -5.163760     -1.046065     -2.993974
  H      -4.421214     -0.617973     -3.365645
  H      -4.806645     -1.835568     -2.570653
32
Coordinates from ORCA-job pb_P2_cplx E -1182.723457558464
  Pb     -5.997166      0.291629     -1.081948
  C       2.870000     -0.523438      0.779808
  O       1.642963      0.013653      0.290060
  C       0.534447     -0.671689      0.585612
  O       0.564367     -1.694854      1.244650
  C      -0.685393     -0.064100      0.044426
  C      -1.903749     -0.704562      0.284245
  C      -3.090777     -0.165565     -0.195790
  O      -4.281403     -0.738859      0.027225
  C      -3.051466      1.027789     -0.949106
  O      -4.158909      1.566367     -1.443981
  C      -1.820136      1.653648     -1.173798
  O      -1.804319      2.816948     -1.898270
  C      -0.641744      1.122891     -0.690571
  H       2.865448     -0.564715      1.869209
  H       3.648603      0.153420      0.436737
  H       3.040546     -1.520515      0.373368
  H      -1.935019     -1.622404      0.857538
  H      -2.726592      3.000845     -2.132387
  H       0.294032      1.630939     -0.882024
  O      -4.239797     -3.064140     -1.326553
  H      -4.285007     -2.290375     -0.708844
  H      -5.011480     -3.594025     -1.109122
  O      -4.796653      3.852559     -0.010009
  H      -5.210986      4.454334     -0.632186
  H      -4.549352      3.064332     -0.531844
  O      -5.666121      1.090962      1.689417
  H      -4.988501      0.414278      1.505761
  H      -5.224494      1.927229      1.487656
  O      -5.153626     -1.091113     -3.002717
  H      -4.385277     -0.642297     -3.376865
  H      -4.788991     -1.892443     -2.551324
32
Coordinates from ORCA-job pb_P2_cplx E -1182.723459393540
  Pb     -5.992761      0.279487     -1.054163
  C       2.864185     -0.538640      0.774049
  O       1.639113      0.008143      0.285910
  C       0.530791     -0.677798      0.578975
  O       0.563938     -1.714427      1.224787
  C      -0.691402     -0.059944      0.046180
  C      -1.909718     -0.698423      0.288349
  C      -3.093690     -0.162873     -0.194980
  O      -4.283171     -0.743794      0.026135
  C      -3.059869      1.032436     -0.943317
  O      -4.172614      1.573875     -1.424154
  C      -1.829597      1.659657     -1.170253
  O      -1.809728      2.823290     -1.890131
  C      -0.650590      1.127551     -0.687752
  H       2.861143     -0.582569      1.864050
  H       3.644032      0.135388      0.433195
  H       3.029830     -1.536225      0.366296
  H      -1.932626     -1.620518      0.859093
  H      -2.728544      3.019480     -2.127341
  H       0.285024      1.633482     -0.883252
  O      -4.227372     -3.071137     -1.341371
  H      -4.260018     -2.314274     -0.709642
  H      -5.006848     -3.608686     -1.132265
  O      -4.812908      3.890640     -0.010578
  H      -5.226946      4.473522     -0.655547
  H      -4.592551      3.094609     -0.534011
  O      -5.648943      1.105140      1.678211
  H      -4.979667      0.424236      1.506935
  H      -5.225309      1.939810      1.459211
  O      -5.116821     -1.103101     -2.975777
  H      -4.352491     -0.646713     -3.348725
  H      -4.750424     -1.904897     -2.529740
32
Coordinates from ORCA-job pb_P2_cplx E -1182.723591907591
  Pb     -5.991721      0.294543     -1.067467
  C       2.862336     -0.514964      0.796230
  O       1.639275      0.018129      0.294840
  C       0.531465     -0.676931      0.579420
  O       0.562238     -1.710738      1.227211
  C      -0.689101     -0.069635      0.035695
  C      -1.906530     -0.706856      0.278178
  C      -3.093268     -0.173931     -0.207619
  O      -4.281212     -0.747121      0.022822
  C      -3.056698      1.018844     -0.960887
  O      -4.166729      1.565715     -1.447409
  C      -1.824715      1.646428     -1.186828
  O      -1.810525      2.806713     -1.909204
  C      -0.646618      1.117400     -0.699904
  H       2.841677     -0.559838      1.884739
  H       3.642018      0.171173      0.465275
  H       3.042203     -1.510970      0.390119
  H      -1.936987     -1.623314      0.854025
  H      -2.731418      2.996662     -2.144800
  H       0.287866      1.627656     -0.894106
  O      -4.242961     -3.061237     -1.346774
  H      -4.268449     -2.305306     -0.724396
  H      -5.010388     -3.595188     -1.124176
  O      -4.786921      3.850367      0.003686
  H      -5.217722      4.453845     -0.614514
  H      -4.553106      3.073804     -0.543431
  O      -5.630828      1.104583      1.697710
  H      -4.967102      0.425869      1.510496
  H      -5.191121      1.939534      1.494994
  O      -5.157513     -1.088301     -2.987809
  H      -4.387710     -0.638411     -3.363009
  H      -4.796288     -1.891793     -2.534734
32
Coordinates from ORCA-job pb_P2_cplx E -1182.723320237616
  Pb     -5.987795      0.273118     -1.095484
  C       2.871955     -0.548508      0.756061
  O       1.642631      0.005993      0.283305
  C       0.533976     -0.671868      0.586358
  O       0.568304     -1.691001      1.245841
  C      -0.688739     -0.057882      0.060487
  C      -1.905201     -0.700481      0.300853
  C      -3.093440     -0.168096     -0.184196
  O      -4.281604     -0.746987      0.031693
  C      -3.054251      1.030838     -0.928773
  O      -4.161935      1.565842     -1.429332
  C      -1.827759      1.673486     -1.141849
  O      -1.817826      2.842248     -1.855308
  C      -0.649060      1.138777     -0.661970
  H       2.872173     -0.609841      1.847749
  H       3.647827      0.133729      0.416311
  H       3.032240     -1.542630      0.334120
  H      -1.935709     -1.624012      0.866425
  H      -2.740310      3.023266     -2.092587
  H       0.284777      1.653025     -0.851060
  O      -4.228975     -3.088426     -1.334198
  H      -4.255109     -2.313193     -0.705438
  H      -4.999915     -3.614999     -1.111416
  O      -4.816987      3.842183     -0.046835
  H      -5.247353      4.423833     -0.667346
  H      -4.570614      3.055388     -0.573930
  O      -5.652507      1.139047      1.686807
  H      -4.988025      0.456030      1.513661
  H      -5.207431      1.968179      1.453114
  O      -5.139908     -1.088125     -3.009949
  H      -4.362535     -0.632302     -3.353567
  H      -4.777448     -1.889902     -2.561173
32
Coordinates from ORCA-job pb_P2_cplx E -1182.723727495336
  Pb     -5.990783      0.282345     -1.073457
  C       2.869244     -0.544249      0.762371
  O       1.642391      0.005788      0.282535
  C       0.532909     -0.675570      0.581281
  O       0.564119     -1.703139      1.233624
  C      -0.688443     -0.060607      0.049891
  C      -1.907047     -0.699320      0.292063
  C      -3.093010     -0.164757     -0.190351
  O      -4.283829     -0.740785      0.031772
  C      -3.055381      1.032118     -0.942352
  O      -4.165437      1.571600     -1.436282
  C      -1.824683      1.660138     -1.164374
  O      -1.808860      2.822208     -1.884947
  C      -0.646004      1.127292     -0.682354
  H       2.867108     -0.596535      1.852505
  H       3.648193      0.133273      0.422664
  H       3.032621     -1.539559      0.346835
  H      -1.934115     -1.618649      0.863465
  H      -2.729415      3.007907     -2.123254
  H       0.289742      1.633333     -0.876288
  O      -4.229739     -3.069863     -1.327511
  H      -4.260587     -2.316077     -0.691510
  H      -5.009812     -3.594516     -1.117604
  O      -4.830018      3.850278     -0.014728
  H      -5.254263      4.443709     -0.641080
  H      -4.580381      3.063487     -0.538524
  O      -5.673862      1.126423      1.677427
  H      -4.999223      0.445753      1.521474
  H      -5.238216      1.960055      1.456827
  O      -5.102983     -1.082916     -2.991968
  H      -4.328816     -0.632889     -3.357222
  H      -4.747970     -1.889547     -2.542555
32
Coordinates from ORCA-job pb_P2_cplx E -1182.723458373543
  Pb     -5.983232      0.292105     -1.065887
  C       2.861594     -0.508345      0.811928
  O       1.640220      0.023095      0.303661
  C       0.531014     -0.674303      0.585835
  O       0.561968     -1.714908      1.230667
  C      -0.689353     -0.066149      0.042327
  C      -1.907521     -0.700138      0.289201
  C      -3.092463     -0.171031     -0.207137
  O      -4.276624     -0.745489      0.030738
  C      -3.056513      1.005335     -0.970688
  O      -4.161953      1.548954     -1.463624
  C      -1.825756      1.632938     -1.201082
  O      -1.808662      2.784578     -1.933650
  C      -0.647841      1.112123     -0.704979
  H       2.838216     -0.547019      1.899342
  H       3.642058      0.173236      0.478861
  H       3.037952     -1.506664      0.414062
  H      -1.935667     -1.611913      0.873264
  H      -2.728133      2.968568     -2.178502
  H       0.287411      1.618001     -0.903450
  O      -4.237655     -3.050217     -1.374151
  H      -4.256729     -2.294582     -0.743381
  H      -4.996194     -3.598112     -1.139813
  O      -4.776593      3.840280      0.032515
  H      -5.242644      4.435212     -0.565135
  H      -4.565557      3.075616     -0.543203
  O      -5.597209      1.114809      1.697516
  H      -4.929492      0.437746      1.495672
  H      -5.170207      1.958563      1.497020
  O      -5.193723     -1.086526     -2.996107
  H      -4.432295     -0.621298     -3.363223
  H      -4.824972     -1.887735     -2.550225
32
Coordinates from ORCA-job pb_P2_cplx E -1182.723862144979
  Pb     -5.989779      0.284136     -1.068402
  C       2.865267     -0.530401      0.783170
  O       1.641104      0.010699      0.289611
  C       0.531815     -0.676979      0.581906
  O       0.562563     -1.707309      1.233386
  C      -0.689316     -0.066057      0.044051
  C      -1.907223     -0.702643      0.290008
  C      -3.093796     -0.171637     -0.198623
  O      -4.281673     -0.746908      0.032529
  C      -3.056176      1.018776     -0.956223
  O      -4.165358      1.560244     -1.448754
  C      -1.825924      1.648881     -1.180952
  O      -1.812687      2.813406     -1.900668
  C      -0.647353      1.120064     -0.693734
  H       2.851749     -0.577598      1.872240
  H       3.645151      0.150651      0.448432
  H       3.036514     -1.526739      0.374476
  H      -1.935727     -1.619451      0.867332
  H      -2.733813      3.001968     -2.138725
  H       0.287292      1.630238     -0.888974
  O      -4.237681     -3.063443     -1.353085
  H      -4.256259     -2.312182     -0.715672
  H      -5.009736     -3.594873     -1.129549
  O      -4.811592      3.829524      0.004245
  H      -5.261333      4.423095     -0.605639
  H      -4.570979      3.057832     -0.547671
  O      -5.635345      1.138867      1.687330
  H      -4.965660      0.461531      1.513444
  H      -5.201211      1.974126      1.468352
  O      -5.132780     -1.079137     -2.991720
  H      -4.358969     -0.626299     -3.351875
  H      -4.777636     -1.885655     -2.541872
32
Coordinates from ORCA-job pb_P2_cplx E -1182.723909845364
  Pb     -5.985852      0.284705     -1.078897
  C       2.866978     -0.546286      0.768482
  O       1.642114      0.008361      0.288330
  C       0.531238     -0.670334      0.586082
  O       0.560342     -1.696283      1.239249
  C      -0.688729     -0.056474      0.051862
  C      -1.907718     -0.694189      0.294158
  C      -3.093750     -0.162210     -0.192768
  O      -4.283093     -0.737239      0.034467
  C      -3.054941      1.027385     -0.950037
  O      -4.161569      1.564505     -1.451735
  C      -1.824103      1.655264     -1.171976
  O      -1.808908      2.809066     -1.899798
  C      -0.645449      1.127177     -0.685478
  H       2.861827     -0.605477      1.859182
  H       3.647476      0.133301      0.434226
  H       3.029735     -1.540431      0.347108
  H      -1.935616     -1.609778      0.869773
  H      -2.729454      2.985055     -2.143790
  H       0.290634      1.631091     -0.880559
  O      -4.224749     -3.064315     -1.340532
  H      -4.253807     -2.313604     -0.700397
  H      -4.998434     -3.594918     -1.128112
  O      -4.831772      3.819511      0.012866
  H      -5.283090      4.418046     -0.587353
  H      -4.588663      3.046349     -0.535348
  O      -5.654934      1.153154      1.665105
  H      -4.979974      0.470788      1.514673
  H      -5.220599      1.988016      1.440105
  O      -5.112600     -1.079826     -2.990080
  H      -4.338291     -0.626760     -3.350328
  H      -4.760800     -1.886925     -2.540107
32
Coordinates from ORCA-job pb_P2_cplx E -1182.724134884624
  Pb     -5.985350      0.277759     -1.082810
  C       2.869294     -0.547801      0.759975
  O       1.642774      0.004944      0.282322
  C       0.532453     -0.678476      0.578487
  O       0.563716     -1.710735      1.225756
  C      -0.688874     -0.059604      0.052267
  C      -1.907946     -0.695678      0.297798
  C      -3.094574     -0.164033     -0.188386
  O      -4.283409     -0.738730      0.040979
  C      -3.054476      1.026022     -0.947933
  O      -4.161287      1.562259     -1.451721
  C      -1.824623      1.656095     -1.168185
  O      -1.810818      2.811357     -1.895388
  C      -0.646000      1.126770     -0.682642
  H       2.865635     -0.605570      1.848868
  H       3.648580      0.130403      0.423600
  H       3.030985     -1.540844      0.341050
  H      -1.936038     -1.612339      0.873242
  H      -2.731384      2.987379     -2.139849
  H       0.289738      1.630853     -0.879593
  O      -4.232944     -3.066233     -1.334647
  H      -4.257678     -2.320227     -0.687284
  H      -5.012663     -3.590934     -1.124133
  O      -4.839275      3.791590      0.023870
  H      -5.306422      4.385194     -0.567715
  H      -4.585959      3.026393     -0.531734
  O      -5.672226      1.185095      1.651028
  H      -4.991449      0.507272      1.518067
  H      -5.242370      2.020441      1.410169
  O      -5.080327     -1.066250     -2.991016
  H      -4.295809     -0.616641     -3.334527
  H      -4.737826     -1.879002     -2.541544
32
Coordinates from ORCA-job pb_P2_cplx E -1182.724724392235
  Pb     -5.985444      0.274502     -1.084100
  C       2.865723     -0.541565      0.767680
  O       1.640841      0.003228      0.279235
  C       0.530542     -0.686959      0.567538
  O       0.562014     -1.721620      1.212303
  C      -0.690745     -0.070282      0.037844
  C      -1.909504     -0.701834      0.289928
  C      -3.097589     -0.170786     -0.197073
  O      -4.283855     -0.739117      0.049520
  C      -3.054286      1.013111     -0.964837
  O      -4.160277      1.550760     -1.469926
  C      -1.825035      1.645506     -1.187163
  O      -1.817785      2.813942     -1.904289
  C      -0.646921      1.115853     -0.700326
  H       2.849730     -0.600898      1.854491
  H       3.645146      0.142261      0.440565
  H       3.037093     -1.532878      0.350219
  H      -1.939170     -1.615761      0.872180
  H      -2.740486      2.997480     -2.146159
  H       0.288212      1.625198     -0.897538
  O      -4.250579     -3.062239     -1.340564
  H      -4.264742     -2.330226     -0.681239
  H      -5.032689     -3.586518     -1.129254
  O      -4.832867      3.705260      0.081509
  H      -5.358539      4.299364     -0.461698
  H      -4.573870      2.983989     -0.530268
  O      -5.665267      1.268407      1.623074
  H      -4.980328      0.593350      1.523013
  H      -5.238089      2.099750      1.357239
  O      -5.044668     -1.051725     -2.989283
  H      -4.244874     -0.609089     -3.304233
  H      -4.718242     -1.873735     -2.540014
32
Coordinates from ORCA-job pb_P2_cplx E -1182.725248978511
  Pb     -5.982610      0.275041     -1.083233
  C       2.863094     -0.539598      0.776840
  O       1.641023      0.004890      0.281961
  C       0.529562     -0.686706      0.564214
  O       0.559034     -1.725515      1.205292
  C      -0.690408     -0.069566      0.030766
  C      -1.909603     -0.699114      0.284625
  C      -3.097694     -0.167523     -0.203725
  O      -4.282486     -0.733099      0.052594
  C      -3.051859      1.011526     -0.977584
  O      -4.158308      1.550274     -1.481979
  C      -1.821941      1.641993     -1.203185
  O      -1.812691      2.804052     -1.928149
  C      -0.644785      1.114696     -0.711729
  H       2.841587     -0.600307      1.862590
  H       3.644310      0.144090      0.455520
  H       3.036560     -1.529720      0.359744
  H      -1.939958     -1.611530      0.871156
  H      -2.733698      2.984635     -2.176707
  H       0.290602      1.622570     -0.911768
  O      -4.254416     -3.064990     -1.344826
  H      -4.265821     -2.335828     -0.683647
  H      -5.031564     -3.597507     -1.134221
  O      -4.822744      3.657369      0.133800
  H      -5.393810      4.252683     -0.363804
  H      -4.566224      2.971931     -0.521145
  O      -5.667406      1.312611      1.600833
  H      -4.976567      0.642410      1.527727
  H      -5.246738      2.143490      1.318784
  O      -5.038693     -1.052733     -2.990703
  H      -4.234825     -0.607466     -3.288898
  H      -4.717472     -1.876331     -2.542771
32
Coordinates from ORCA-job pb_P2_cplx E -1182.726036615263
  Pb     -5.976731      0.274436     -1.079060
  C       2.859046     -0.538986      0.790727
  O       1.641255      0.008562      0.290004
  C       0.527994     -0.680412      0.564873
  O       0.552493     -1.720877      1.203833
  C      -0.688133     -0.065403      0.019551
  C      -1.909400     -0.689738      0.273827
  C      -3.095802     -0.153914     -0.214909
  O      -4.279843     -0.716621      0.050433
  C      -3.046279      1.017125     -0.994925
  O      -4.152776      1.559513     -1.493812
  C      -1.813256      1.635868     -1.230007
  O      -1.793674      2.783028     -1.971570
  C      -0.637734      1.110007     -0.733170
  H       2.831872     -0.608207      1.876767
  H       3.642958      0.147767      0.480865
  H       3.037344     -1.526271      0.366016
  H      -1.939023     -1.596360      0.867295
  H      -2.710529      2.962312     -2.231861
  H       0.299596      1.609516     -0.937494
  O      -4.245466     -3.070516     -1.345173
  H      -4.260099     -2.339360     -0.689744
  H      -5.006724     -3.627140     -1.141619
  O      -4.791545      3.612134      0.217097
  H      -5.430340      4.208346     -0.196424
  H      -4.548083      2.993432     -0.509258
  O      -5.695330      1.353648      1.558167
  H      -4.992438      0.691562      1.540185
  H      -5.285815      2.184429      1.255427
  O      -5.051879     -1.075463     -2.990907
  H      -4.254487     -0.613769     -3.271469
  H      -4.723726     -1.891919     -2.545290
32
Coordinates from ORCA-job pb_P2_cplx E -1182.726473096935
  Pb     -5.965120      0.267996     -1.088217
  C       2.863605     -0.545165      0.781438
  O       1.645473      0.009086      0.289571
  C       0.531063     -0.675809      0.567450
  O       0.554130     -1.714361      1.208540
  C      -0.684306     -0.059880      0.022630
  C      -1.908078     -0.680237      0.282266
  C      -3.092785     -0.146552     -0.211887
  O      -4.278864     -0.706804      0.054748
  C      -3.041737      1.019437     -1.003709
  O      -4.148550      1.561574     -1.506135
  C      -1.807398      1.633645     -1.241485
  O      -1.780940      2.773953     -1.992843
  C      -0.632277      1.110477     -0.738798
  H       2.841634     -0.622011      1.867423
  H       3.648320      0.140104      0.473057
  H       3.036661     -1.529213      0.349113
  H      -1.938048     -1.584355      0.881347
  H      -2.695143      2.951156     -2.258905
  H       0.306271      1.606964     -0.946805
  O      -4.252517     -3.073147     -1.334824
  H      -4.271431     -2.341684     -0.677357
  H      -5.013303     -3.629778     -1.133892
  O      -4.781003      3.575358      0.271128
  H      -5.462209      4.154750     -0.093251
  H      -4.528998      2.993922     -0.483375
  O      -5.743674      1.380195      1.519339
  H      -5.020576      0.741668      1.541551
  H      -5.349565      2.216751      1.195997
  O      -5.028499     -1.079779     -3.001513
  H      -4.226101     -0.614524     -3.265678
  H      -4.712584     -1.897010     -2.548552
32
Coordinates from ORCA-job pb_P2_cplx E -1182.725027247600
  Pb     -5.959095      0.251066     -1.089975
  C       2.866947     -0.567803      0.751900
  O       1.644232      0.011913      0.297071
  C       0.531662     -0.655165      0.593586
  O       0.554201     -1.685010      1.239258
  C      -0.682692     -0.039974      0.045325
  C      -1.910878     -0.662273      0.300130
  C      -3.089507     -0.125959     -0.197228
  O      -4.288727     -0.690882      0.031988
  C      -3.043529      1.047922     -0.984021
  O      -4.152284      1.590314     -1.479142
  C      -1.802881      1.643877     -1.229797
  O      -1.755466      2.758866     -2.003608
  C      -0.628070      1.120081     -0.725652
  H       2.876785     -0.664339      1.843369
  H       3.649338      0.115028      0.435377
  H       3.023923     -1.547185      0.293265
  H      -1.936606     -1.567575      0.892934
  H      -2.662743      2.927673     -2.278953
  H       0.314562      1.602336     -0.935984
  O      -4.186265     -3.088311     -1.304268
  H      -4.232208     -2.324793     -0.679913
  H      -4.921671     -3.663435     -1.111556
  O      -4.705009      3.699042      0.301530
  H      -5.392357      4.310981      0.018423
  H      -4.499578      3.122805     -0.465763
  O      -5.872083      1.302223      1.448241
  H      -5.129622      0.681539      1.543636
  H      -5.474957      2.146468      1.127389
  O      -5.062524     -1.180035     -3.030102
  H      -4.296600     -0.671386     -3.317508
  H      -4.712849     -1.961279     -2.551579
32
Coordinates from ORCA-job pb_P2_cplx E -1182.726937055720
  Pb     -5.969825      0.259091     -1.114984
  C       2.870183     -0.547768      0.759430
  O       1.646372      0.011298      0.287517
  C       0.535172     -0.675177      0.570213
  O       0.561612     -1.710130      1.210781
  C      -0.681836     -0.060743      0.028102
  C      -1.906025     -0.680993      0.287821
  C      -3.090887     -0.147923     -0.204034
  O      -4.278460     -0.713132      0.046013
  C      -3.045557      1.025539     -0.989616
  O      -4.149227      1.571659     -1.489601
  C      -1.807972      1.633016     -1.230491
  O      -1.779179      2.774394     -1.981780
  C      -0.631225      1.105908     -0.735080
  H       2.859600     -0.639176      1.846662
  H       3.650657      0.145508      0.452148
  H       3.044283     -1.526470      0.309118
  H      -1.936382     -1.584546      0.883509
  H      -2.694272      2.958229     -2.240773
  H       0.307004      1.599494     -0.946349
  O      -4.237995     -3.076426     -1.299786
  H      -4.269587     -2.331644     -0.656493
  H      -5.000714     -3.628992     -1.104564
  O      -4.726757      3.629181      0.286902
  H      -5.412323      4.212209     -0.052520
  H      -4.487697      3.048459     -0.468592
  O      -5.837428      1.347088      1.469284
  H      -5.100902      0.722425      1.536978
  H      -5.442154      2.187976      1.151041
  O      -5.013133     -1.113279     -3.013430
  H      -4.213178     -0.639434     -3.278680
  H      -4.698722     -1.918913     -2.540374
32
Coordinates from ORCA-job pb_P2_cplx E -1182.727049712690
  Pb     -5.976412      0.268183     -1.089065
  C       2.864644     -0.548703      0.761282
  O       1.641125      0.006419      0.283405
  C       0.530430     -0.683737      0.563845
  O       0.558535     -1.720749      1.202564
  C      -0.687276     -0.066963      0.024854
  C      -1.911583     -0.683260      0.290507
  C      -3.096454     -0.150534     -0.200873
  O      -4.286460     -0.708067      0.054555
  C      -3.049150      1.021486     -0.987350
  O      -4.153010      1.567910     -1.486929
  C      -1.811515      1.627104     -1.233703
  O      -1.788762      2.768928     -1.983912
  C      -0.635550      1.098395     -0.740679
  H       2.848925     -0.637150      1.847958
  H       3.644047      0.145782      0.454861
  H       3.042075     -1.528453      0.315379
  H      -1.944457     -1.583762      0.889059
  H      -2.707065      2.951795     -2.235695
  H       0.303385      1.589748     -0.956102
  O      -4.223786     -3.056286     -1.303807
  H      -4.262763     -2.314417     -0.656665
  H      -4.989855     -3.604078     -1.107513
  O      -4.752357      3.588985      0.286743
  H      -5.436138      4.170104     -0.058417
  H      -4.504084      3.006264     -0.461309
  O      -5.809780      1.373246      1.465194
  H      -5.072305      0.754151      1.537091
  H      -5.408971      2.205327      1.127058
  O      -4.992563     -1.094467     -3.014013
  H      -4.191891     -0.626384     -3.274828
  H      -4.677531     -1.900089     -2.535120
32
Coordinates from ORCA-job pb_P2_cplx E -1182.727161247210
  Pb     -5.973866      0.275268     -1.089906
  C       2.867744     -0.546431      0.767706
  O       1.646160      0.008662      0.284371
  C       0.534188     -0.679537      0.564340
  O       0.561209     -1.715579      1.206075
  C      -0.682471     -0.064011      0.021535
  C      -1.907067     -0.680233      0.288142
  C      -3.092019     -0.147991     -0.203998
  O      -4.280623     -0.706446      0.054529
  C      -3.044523      1.021856     -0.993516
  O      -4.147591      1.568236     -1.492529
  C      -1.806160      1.628061     -1.242293
  O      -1.784826      2.768325     -1.997151
  C      -0.630294      1.101851     -0.746892
  H       2.850916     -0.628513      1.854859
  H       3.648857      0.143519      0.459007
  H       3.042601     -1.528442      0.328034
  H      -1.941550     -1.582732      0.887946
  H      -2.703313      2.946804     -2.248943
  H       0.308692      1.594413     -0.963761
  O      -4.231004     -3.051061     -1.302268
  H      -4.267419     -2.307325     -0.657412
  H      -4.996660     -3.599293     -1.101850
  O      -4.732646      3.578957      0.292776
  H      -5.426412      4.154257     -0.047989
  H      -4.481033      3.009213     -0.464533
  O      -5.831638      1.353965      1.468903
  H      -5.086330      0.742643      1.544191
  H      -5.440269      2.195701      1.144871
  O      -5.007936     -1.093567     -3.017679
  H      -4.205549     -0.626855     -3.283831
  H      -4.695721     -1.896985     -2.534361
32
Coordinates from ORCA-job pb_P2_cplx E -1182.727209183636
  Pb     -5.977473      0.275188     -1.104723
  C       2.865614     -0.548332      0.766391
  O       1.644700      0.006639      0.281319
  C       0.533382     -0.684817      0.554409
  O       0.559592     -1.725093      1.188410
  C      -0.682979     -0.068254      0.011894
  C      -1.906503     -0.687496      0.274458
  C      -3.093460     -0.151134     -0.210272
  O      -4.281519     -0.715107      0.040936
  C      -3.048689      1.027070     -0.987448
  O      -4.152083      1.577149     -1.481310
  C      -1.810367      1.634377     -1.234883
  O      -1.792691      2.781189     -1.981100
  C      -0.632317      1.103436     -0.748461
  H       2.846239     -0.633127      1.853168
  H       3.647346      0.144462      0.462694
  H       3.044407     -1.528384      0.323396
  H      -1.940784     -1.594471      0.867077
  H      -2.713689      2.960130     -2.226125
  H       0.305999      1.597642     -0.963573
  O      -4.217272     -3.067850     -1.282287
  H      -4.258124     -2.315640     -0.644463
  H      -4.985421     -3.613452     -1.089664
  O      -4.717479      3.612298      0.298553
  H      -5.401982      4.200182     -0.037812
  H      -4.484403      3.032271     -0.456612
  O      -5.848733      1.351403      1.434459
  H      -5.109560      0.735813      1.540418
  H      -5.447081      2.189392      1.116981
  O      -4.998671     -1.108246     -3.000902
  H      -4.195684     -0.642612     -3.273039
  H      -4.686867     -1.907897     -2.513516
32
Coordinates from ORCA-job pb_P2_cplx E -1182.727296272407
  Pb     -5.981928      0.278486     -1.097398
  C       2.864377     -0.545940      0.765954
  O       1.641600      0.006182      0.281477
  C       0.531001     -0.685802      0.556303
  O       0.558586     -1.722916      1.194297
  C      -0.685974     -0.070908      0.014991
  C      -1.909592     -0.688324      0.280737
  C      -3.095868     -0.152884     -0.206307
  O      -4.284585     -0.716167      0.042661
  C      -3.050536      1.023490     -0.985821
  O      -4.153766      1.575111     -1.481352
  C      -1.812724      1.628792     -1.236298
  O      -1.794438      2.771574     -1.987632
  C      -0.635177      1.096609     -0.750181
  H       2.844461     -0.631242      1.852829
  H       3.644165      0.149432      0.461500
  H       3.044707     -1.526121      0.322919
  H      -1.944983     -1.591737      0.876733
  H      -2.716561      2.951360     -2.229393
  H       0.303625      1.587044     -0.968650
  O      -4.204753     -3.058655     -1.287545
  H      -4.248500     -2.305024     -0.651720
  H      -4.970288     -3.608045     -1.089994
  O      -4.706855      3.609555      0.301605
  H      -5.395901      4.196501     -0.026808
  H      -4.481408      3.029866     -0.455610
  O      -5.851521      1.352669      1.435003
  H      -5.104480      0.747204      1.545801
  H      -5.452102      2.195266      1.121721
  O      -5.002256     -1.110800     -3.015192
  H      -4.202523     -0.643033     -3.284617
  H      -4.682356     -1.904814     -2.521641
32
Coordinates from ORCA-job pb_P2_cplx E -1182.727431454226
  Pb     -5.983433      0.289674     -1.082865
  C       2.861942     -0.546863      0.767676
  O       1.639388      0.004470      0.279242
  C       0.528993     -0.689530      0.551023
  O       0.557347     -1.728861      1.187299
  C      -0.687959     -0.073026      0.011515
  C      -1.911773     -0.689930      0.278317
  C      -3.097767     -0.153860     -0.207894
  O      -4.286979     -0.716088      0.038584
  C      -3.049625      1.022291     -0.985938
  O      -4.152842      1.575421     -1.481358
  C      -1.811924      1.626755     -1.239716
  O      -1.797084      2.769027     -1.992831
  C      -0.635406      1.094481     -0.754137
  H       2.839217     -0.629410      1.854888
  H       3.640808      0.148013      0.462555
  H       3.042956     -1.528582      0.328276
  H      -1.949439     -1.593074      0.874408
  H      -2.721569      2.945641     -2.229174
  H       0.304680      1.583446     -0.973908
  O      -4.187207     -3.052412     -1.285922
  H      -4.230716     -2.297535     -0.651979
  H      -4.953261     -3.598805     -1.083526
  O      -4.700270      3.588589      0.308051
  H      -5.397730      4.171700     -0.009615
  H      -4.480536      3.014569     -0.454474
  O      -5.862164      1.362260      1.417734
  H      -5.108382      0.775337      1.562365
  H      -5.464636      2.208446      1.112904
  O      -5.001296     -1.108198     -3.019872
  H      -4.200483     -0.643792     -3.289458
  H      -4.679403     -1.893426     -2.513798
32
Coordinates from ORCA-job pb_P2_cplx E -1182.727517702398
  Pb     -5.987454      0.293441     -1.075957
  C       2.859850     -0.548449      0.767133
  O       1.637160      0.001637      0.275964
  C       0.527187     -0.692280      0.547407
  O       0.556580     -1.732103      1.183033
  C      -0.690579     -0.075081      0.010022
  C      -1.913700     -0.694233      0.275595
  C      -3.100012     -0.157505     -0.208996
  O      -4.289038     -0.723192      0.031375
  C      -3.052056      1.021909     -0.982672
  O      -4.156380      1.575451     -1.477226
  C      -1.815237      1.628892     -1.235500
  O      -1.802160      2.773129     -1.986642
  C      -0.638636      1.096184     -0.751326
  H       2.836034     -0.626734      1.854612
  H       3.638229      0.145069      0.459675
  H       3.040627     -1.531993      0.332202
  H      -1.949615     -1.601278      0.867677
  H      -2.727323      2.948241     -2.220687
  H       0.301950      1.585686     -0.969161
  O      -4.169339     -3.057337     -1.285134
  H      -4.213812     -2.300201     -0.652749
  H      -4.936732     -3.601309     -1.079682
  O      -4.690868      3.596837      0.307020
  H      -5.385583      4.186451     -0.006150
  H      -4.489296      3.012044     -0.452496
  O      -5.865533      1.367085      1.398982
  H      -5.108947      0.792038      1.575052
  H      -5.466303      2.218443      1.110401
  O      -5.003900     -1.116886     -3.024094
  H      -4.204799     -0.652488     -3.297965
  H      -4.676868     -1.894736     -2.511341
32
Coordinates from ORCA-job pb_P2_cplx E -1182.727623403723
  Pb     -5.990560      0.292958     -1.063560
  C       2.859057     -0.548655      0.764991
  O       1.636500     -0.000953      0.271810
  C       0.527160     -0.695756      0.542667
  O       0.556934     -1.736514      1.176502
  C      -0.691652     -0.078200      0.007269
  C      -1.913795     -0.699833      0.269945
  C      -3.101485     -0.162088     -0.210895
  O      -4.288350     -0.734450      0.021313
  C      -3.054399      1.022582     -0.977633
  O      -4.160818      1.575804     -1.467503
  C      -1.818589      1.630550     -1.228546
  O      -1.804866      2.776596     -1.976757
  C      -0.640881      1.096350     -0.747717
  H       2.833871     -0.623293      1.852667
  H       3.637622      0.145128      0.456183
  H       3.041517     -1.533618      0.332941
  H      -1.945028     -1.609975      0.856796
  H      -2.729683      2.956351     -2.208835
  H       0.299328      1.586246     -0.963115
  O      -4.154605     -3.072740     -1.283407
  H      -4.197846     -2.314443     -0.652614
  H      -4.924963     -3.613403     -1.077342
  O      -4.678041      3.606805      0.306590
  H      -5.370209      4.201224     -0.002607
  H      -4.496937      3.010819     -0.451182
  O      -5.878556      1.378394      1.366740
  H      -5.126049      0.819318      1.599648
  H      -5.475403      2.235395      1.101590
  O      -5.004505     -1.123208     -3.026724
  H      -4.205603     -0.657757     -3.301565
  H      -4.675718     -1.892903     -2.509277
32
Coordinates from ORCA-job pb_P2_cplx E -1182.727705169809
  Pb     -5.990959      0.287363     -1.060446
  C       2.859856     -0.550366      0.759719
  O       1.636380     -0.000131      0.271146
  C       0.527352     -0.694020      0.544972
  O       0.558487     -1.735831      1.177563
  C      -0.692638     -0.075823      0.012243
  C      -1.913586     -0.703282      0.268102
  C      -3.102261     -0.166721     -0.212037
  O      -4.286522     -0.745174      0.014839
  C      -3.056473      1.022111     -0.974166
  O      -4.163690      1.572897     -1.463914
  C      -1.821693      1.636568     -1.216794
  O      -1.806243      2.788029     -1.957661
  C      -0.643752      1.104027     -0.734235
  H       2.840367     -0.622573      1.847873
  H       3.638120      0.139429      0.445098
  H       3.037380     -1.536670      0.329811
  H      -1.940251     -1.618080      0.848464
  H      -2.728151      2.969258     -2.196186
  H       0.295476      1.599930     -0.941974
  O      -4.150054     -3.091285     -1.290302
  H      -4.190358     -2.334386     -0.658554
  H      -4.920111     -3.630502     -1.081643
  O      -4.672168      3.618658      0.294328
  H      -5.359002      4.217948     -0.017151
  H      -4.500584      3.009775     -0.456734
  O      -5.877545      1.393705      1.353326
  H      -5.135564      0.835441      1.620977
  H      -5.467448      2.253891      1.105460
  O      -5.013282     -1.136115     -3.031821
  H      -4.215804     -0.667000     -3.306802
  H      -4.681833     -1.904343     -2.515130
32
Coordinates from ORCA-job pb_P2_cplx E -1182.727795405454
  Pb     -5.988770      0.273637     -1.046607
  C       2.864836     -0.546591      0.755301
  O       1.640314      0.001143      0.269309
  C       0.532012     -0.693181      0.546677
  O       0.565218     -1.732863      1.181214
  C      -0.689325     -0.077974      0.014297
  C      -1.908463     -0.712018      0.263111
  C      -3.099026     -0.176761     -0.213813
  O      -4.279655     -0.761715      0.011348
  C      -3.057103      1.017303     -0.970448
  O      -4.166432      1.567398     -1.454328
  C      -1.823491      1.636110     -1.207019
  O      -1.806459      2.790384     -1.942063
  C      -0.644226      1.106416     -0.723934
  H       2.848500     -0.615928      1.843687
  H       3.642822      0.143037      0.436613
  H       3.041992     -1.534026      0.327138
  H      -1.929611     -1.632019      0.836065
  H      -2.724990      2.973865     -2.187632
  H       0.292348      1.609225     -0.925957
  O      -4.163370     -3.108947     -1.298637
  H      -4.198506     -2.354659     -0.663785
  H      -4.936819     -3.645455     -1.087602
  O      -4.668916      3.631450      0.287609
  H      -5.353899      4.224963     -0.039206
  H      -4.494306      3.011597     -0.455074
  O      -5.887688      1.407719      1.335517
  H      -5.154514      0.862075      1.646008
  H      -5.472434      2.269641      1.098872
  O      -5.014436     -1.132752     -3.034520
  H      -4.215775     -0.660221     -3.301021
  H      -4.686380     -1.904120     -2.522746
32
Coordinates from ORCA-job pb_P2_cplx E -1182.727899411688
  Pb     -5.984924      0.256352     -1.029887
  C       2.874891     -0.549143      0.742521
  O       1.647834     -0.000332      0.266542
  C       0.540381     -0.695224      0.549410
  O       0.577180     -1.736355      1.181916
  C      -0.682632     -0.079758      0.022144
  C      -1.899780     -0.719632      0.262509
  C      -3.092474     -0.185523     -0.209539
  O      -4.269199     -0.777745      0.013009
  C      -3.056163      1.013943     -0.958887
  O      -4.166158      1.561126     -1.441381
  C      -1.824193      1.639454     -1.185114
  O      -1.806495      2.801748     -1.907118
  C      -0.642858      1.110149     -0.704751
  H       2.868308     -0.617974      1.830958
  H       3.652155      0.138668      0.416589
  H       3.047071     -1.536961      0.313222
  H      -1.916323     -1.644225      0.825684
  H      -2.722662      2.989179     -2.159604
  H       0.289771      1.620702     -0.899544
  O      -4.172333     -3.125409     -1.311229
  H      -4.202334     -2.373941     -0.673492
  H      -4.942712     -3.663536     -1.096123
  O      -4.677173      3.641921      0.263646
  H      -5.361186      4.224231     -0.082945
  H      -4.484400      3.014052     -0.468044
  O      -5.911029      1.437987      1.315151
  H      -5.201604      0.901023      1.690187
  H      -5.485298      2.297231      1.082122
  O      -5.019194     -1.137722     -3.040486
  H      -4.222518     -0.654147     -3.293471
  H      -4.690501     -1.913407     -2.535619
32
Coordinates from ORCA-job pb_P2_cplx E -1182.727998269107
  Pb     -5.981267      0.245017     -1.014459
  C       2.883909     -0.549071      0.736312
  O       1.654584     -0.001000      0.265011
  C       0.548370     -0.696247      0.553074
  O       0.588296     -1.736355      1.187261
  C      -0.676162     -0.082561      0.028228
  C      -1.891837     -0.726417      0.266746
  C      -3.085578     -0.194455     -0.204559
  O      -4.262053     -0.787859      0.020470
  C      -3.053713      1.006272     -0.951734
  O      -4.164861      1.552165     -1.434119
  C      -1.823404      1.637032     -1.174942
  O      -1.809027      2.802970     -1.890599
  C      -0.640667      1.110234     -0.695390
  H       2.883469     -0.615588      1.824929
  H       3.659656      0.137406      0.404831
  H       3.053385     -1.537797      0.308472
  H      -1.908629     -1.652344      0.827493
  H      -2.725186      2.985791     -2.146289
  H       0.289574      1.626956     -0.888394
  O      -4.189892     -3.125507     -1.327403
  H      -4.213520     -2.375730     -0.686657
  H      -4.957422     -3.664157     -1.105182
  O      -4.692960      3.649763      0.247453
  H      -5.375503      4.220005     -0.121730
  H      -4.478495      3.015983     -0.471876
  O      -5.921494      1.450890      1.316118
  H      -5.217045      0.924159      1.712345
  H      -5.494027      2.306219      1.073295
  O      -5.019608     -1.131924     -3.045557
  H      -4.223492     -0.643244     -3.287658
  H      -4.691954     -1.913876     -2.547117
32
Coordinates from ORCA-job pb_P2_cplx E -1182.728076787246
  Pb     -5.979603      0.231573     -0.986351
  C       2.895635     -0.554348      0.724104
  O       1.662912     -0.007165      0.259457
  C       0.558679     -0.701891      0.555461
  O       0.602320     -1.740732      1.191686
  C      -0.668404     -0.088300      0.037344
  C      -1.882518     -0.734928      0.278074
  C      -3.077390     -0.204901     -0.191659
  O      -4.254569     -0.800036      0.033364
  C      -3.050972      0.996600     -0.935761
  O      -4.163191      1.539518     -1.420156
  C      -1.823362      1.632333     -1.158952
  O      -1.816377      2.801345     -1.869282
  C      -0.638119      1.106513     -0.684747
  H       2.902928     -0.617715      1.812814
  H       3.669147      0.131011      0.385474
  H       3.061508     -1.544285      0.297771
  H      -1.900394     -1.662553      0.837074
  H      -2.735341      2.975363     -2.123734
  H       0.290302      1.625592     -0.880182
  O      -4.196976     -3.113886     -1.347868
  H      -4.214869     -2.365252     -0.704438
  H      -4.958597     -3.656879     -1.118046
  O      -4.719977      3.656419      0.224828
  H      -5.403563      4.208863     -0.168765
  H      -4.478899      3.016927     -0.479548
  O      -5.941547      1.471410      1.307078
  H      -5.244479      0.970686      1.748013
  H      -5.516791      2.323277      1.048213
  O      -5.012280     -1.123534     -3.052971
  H      -4.219053     -0.624320     -3.279779
  H      -4.682712     -1.909975     -2.560146
32
Coordinates from ORCA-job pb_P2_cplx E -1182.728083488091
  Pb     -5.977925      0.230747     -0.981419
  C       2.899919     -0.555429      0.722422
  O       1.666607     -0.009467      0.257890
  C       0.562894     -0.703989      0.556317
  O       0.606832     -1.742170      1.193779
  C      -0.665305     -0.091253      0.039792
  C      -1.878926     -0.737212      0.284904
  C      -3.073912     -0.208611     -0.186528
  O      -4.251150     -0.803265      0.039368
  C      -3.048418      0.991043     -0.931998
  O      -4.160883      1.533000     -1.418536
  C      -1.821704      1.627262     -1.158226
  O      -1.817924      2.794195     -1.871367
  C      -0.635869      1.102028     -0.685351
  H       2.906938     -0.617865      1.810969
  H       3.673000      0.130666      0.383343
  H       3.065807     -1.545573      0.296641
  H      -1.898300     -1.662243      0.847975
  H      -2.738546      2.964286     -2.123782
  H       0.292895      1.619398     -0.884781
  O      -4.200877     -3.107072     -1.357845
  H      -4.215112     -2.359558     -0.712534
  H      -4.959827     -3.651710     -1.125123
  O      -4.736557      3.661342      0.215911
  H      -5.418003      4.207917     -0.188502
  H      -4.484713      3.018214     -0.481225
  O      -5.948074      1.475467      1.322459
  H      -5.246486      0.978700      1.758739
  H      -5.528553      2.325376      1.052281
  O      -5.008562     -1.113522     -3.055941
  H      -4.214980     -0.611771     -3.275951
  H      -4.680836     -1.902200     -2.565306
32
Coordinates from ORCA-job pb_P2_cplx E -1182.728125009945
  Pb     -5.975702      0.227275     -0.971790
  C       2.903240     -0.560116      0.718947
  O       1.669850     -0.012743      0.255418
  C       0.566395     -0.705846      0.556110
  O       0.610289     -1.743831      1.194002
  C      -0.662967     -0.093103      0.041499
  C      -1.875766     -0.740063      0.288650
  C      -3.071402     -0.212533     -0.182564
  O      -4.247789     -0.809486      0.040905
  C      -3.046574      0.987556     -0.926780
  O      -4.160025      1.527624     -1.413294
  C      -1.820699      1.624821     -1.154922
  O      -1.820455      2.791295     -1.869335
  C      -0.634125      1.100206     -0.683926
  H       2.911592     -0.621225      1.807783
  H       3.676359      0.124516      0.378270
  H       3.067131     -1.550988      0.293923
  H      -1.894263     -1.664064      0.853244
  H      -2.742434      2.958114     -2.119239
  H       0.295424      1.616395     -0.884786
  O      -4.195763     -3.104523     -1.363668
  H      -4.208165     -2.358381     -0.716528
  H      -4.954025     -3.650115     -1.130505
  O      -4.751579      3.667147      0.207301
  H      -5.432470      4.209412     -0.204566
  H      -4.495374      3.018824     -0.483940
  O      -5.955787      1.481089      1.321920
  H      -5.255699      0.999253      1.777466
  H      -5.541737      2.332778      1.048729
  O      -5.004760     -1.105922     -3.058104
  H      -4.211468     -0.601387     -3.273212
  H      -4.677803     -1.895248     -2.568635
32
Coordinates from ORCA-job pb_P2_cplx E -1182.728142794536
  Pb     -5.974814      0.220564     -0.963378
  C       2.907536     -0.569138      0.710855
  O       1.673689     -0.018185      0.252055
  C       0.570512     -0.708809      0.556234
  O       0.614587     -1.746771      1.193781
  C      -0.660556     -0.094636      0.045845
  C      -1.872086     -0.742820      0.295198
  C      -3.068990     -0.216725     -0.175018
  O      -4.242664     -0.819112      0.044366
  C      -3.045688      0.984728     -0.917001
  O      -4.160354      1.522530     -1.402392
  C      -1.820718      1.623171     -1.146944
  O      -1.823445      2.788339     -1.863551
  C      -0.632879      1.098944     -0.678955
  H       2.918864     -0.632101      1.799779
  H       3.680762      0.114790      0.369244
  H       3.068509     -1.559668      0.283392
  H      -1.887712     -1.668315      0.859208
  H      -2.746233      2.953746     -2.110572
  H       0.297269      1.612818     -0.882214
  O      -4.183408     -3.102130     -1.370947
  H      -4.195612     -2.359586     -0.719757
  H      -4.940495     -3.650650     -1.140471
  O      -4.773434      3.673130      0.190397
  H      -5.452771      4.210484     -0.231292
  H      -4.510957      3.018588     -0.493683
  O      -5.968714      1.494207      1.321878
  H      -5.273659      1.027682      1.801487
  H      -5.559542      2.345976      1.039615
  O      -4.997521     -1.094276     -3.055929
  H      -4.205039     -0.584064     -3.261646
  H      -4.670987     -1.885981     -2.571210
32
Coordinates from ORCA-job pb_P2_cplx E -1182.728156856492
  Pb     -5.971118      0.214485     -0.954994
  C       2.910365     -0.571727      0.709951
  O       1.676744     -0.020669      0.251464
  C       0.573438     -0.711549      0.555670
  O       0.617309     -1.750201      1.192446
  C      -0.658107     -0.097515      0.045826
  C      -1.868863     -0.746253      0.295923
  C      -3.066710     -0.220635     -0.173394
  O      -4.238906     -0.826036      0.044167
  C      -3.044486      0.981636     -0.914097
  O      -4.160714      1.518339     -1.396722
  C      -1.819983      1.620268     -1.145395
  O      -1.823646      2.786532     -1.861140
  C      -0.631252      1.095953     -0.678980
  H       2.921678     -0.634780      1.798616
  H       3.684113      0.112096      0.368410
  H       3.071044     -1.562026      0.282345
  H      -1.882557     -1.671420      0.859738
  H      -2.746971      2.954223     -2.105140
  H       0.298808      1.609804     -0.882433
  O      -4.177936     -3.104468     -1.380133
  H      -4.190144     -2.365538     -0.724655
  H      -4.934473     -3.654117     -1.151171
  O      -4.786812      3.679194      0.179193
  H      -5.464996      4.213356     -0.247979
  H      -4.519732      3.021046     -0.499850
  O      -5.974740      1.502741      1.326062
  H      -5.282365      1.051166      1.823556
  H      -5.570067      2.355338      1.039797
  O      -4.997906     -1.086890     -3.052733
  H      -4.205721     -0.574185     -3.253680
  H      -4.671845     -1.881438     -2.572294
32
Coordinates from ORCA-job pb_P2_cplx E -1182.728143612685
  Pb     -5.972660      0.215935     -0.958213
  C       2.909252     -0.570046      0.712659
  O       1.675515     -0.019250      0.253745
  C       0.572239     -0.710914      0.556825
  O       0.616467     -1.749498      1.193728
  C      -0.658774     -0.097453      0.045085
  C      -1.869854     -0.745135      0.295537
  C      -3.067539     -0.219463     -0.174029
  O      -4.240031     -0.823751      0.045382
  C      -3.045198      0.982125     -0.916235
  O      -4.161337      1.520287     -1.397125
  C      -1.819745      1.618856     -1.149355
  O      -1.821499      2.783978     -1.866799
  C      -0.631466      1.094807     -0.681712
  H       2.920247     -0.634209      1.801320
  H       3.682590      0.114321      0.371964
  H       3.071192     -1.559930      0.284442
  H      -1.883473     -1.669357      0.860158
  H      -2.744124      2.953857     -2.110837
  H       0.298522      1.608743     -0.885532
  O      -4.176623     -3.102896     -1.379525
  H      -4.191785     -2.364669     -0.723575
  H      -4.933696     -3.652924     -1.152760
  O      -4.784428      3.676290      0.181351
  H      -5.462062      4.213839     -0.242291
  H      -4.519047      3.020638     -0.500519
  O      -5.971314      1.498541      1.329157
  H      -5.274918      1.042134      1.816865
  H      -5.566101      2.350168      1.041867
  O      -5.002043     -1.084757     -3.049307
  H      -4.209952     -0.572971     -3.252530
  H      -4.674909     -1.880566     -2.571368
32
Coordinates from ORCA-job pb_P2_cplx E -1182.728162924075
  Pb     -5.974790      0.213296     -0.955967
  C       2.908587     -0.568432      0.712439
  O       1.673828     -0.018654      0.254844
  C       0.571230     -0.711660      0.558092
  O       0.617149     -1.749823      1.195318
  C      -0.659873     -0.098736      0.046439
  C      -1.870981     -0.746341      0.297120
  C      -3.068800     -0.220910     -0.172177
  O      -4.241420     -0.824874      0.048535
  C      -3.047200      0.980876     -0.914568
  O      -4.163567      1.520341     -1.392832
  C      -1.821498      1.617072     -1.149167
  O      -1.821907      2.781174     -1.867557
  C      -0.633313      1.093301     -0.681187
  H       2.920349     -0.634239      1.800978
  H       3.680707      0.117357      0.371811
  H       3.071681     -1.557686      0.283124
  H      -1.884299     -1.671623      0.860530
  H      -2.743826      2.953020     -2.111702
  H       0.295832      1.608390     -0.885843
  O      -4.173603     -3.102316     -1.384090
  H      -4.191624     -2.365643     -0.727075
  H      -4.930417     -3.653905     -1.159647
  O      -4.782126      3.675983      0.178218
  H      -5.458503      4.215908     -0.244125
  H      -4.518466      3.020122     -0.503870
  O      -5.968525      1.501493      1.332279
  H      -5.270502      1.047082      1.818604
  H      -5.563534      2.351381      1.040078
  O      -5.002706     -1.083154     -3.047863
  H      -4.210429     -0.571097     -3.248820
  H      -4.674006     -1.880974     -2.573545
32
Coordinates from ORCA-job pb_P2_cplx E -1182.728175367958
  Pb     -5.975073      0.212674     -0.952808
  C       2.908676     -0.566555      0.714545
  O       1.673941     -0.018623      0.255266
  C       0.571528     -0.712560      0.558012
  O       0.617911     -1.750412      1.195816
  C      -0.659447     -0.100519      0.045505
  C      -1.870690     -0.747278      0.297631
  C      -3.068563     -0.221737     -0.171108
  O      -4.241453     -0.824689      0.051363
  C      -3.047510      0.979278     -0.914537
  O      -4.163879      1.519001     -1.391812
  C      -1.821571      1.614320     -1.151407
  O      -1.821964      2.778107     -1.870797
  C      -0.633229      1.090542     -0.683831
  H       2.919315     -0.631700      1.803031
  H       3.680607      0.119841      0.374314
  H       3.073069     -1.555868      0.286001
  H      -1.884040     -1.672163      0.861663
  H      -2.744106      2.950679     -2.114010
  H       0.295594      1.605470     -0.889905
  O      -4.172046     -3.100340     -1.386866
  H      -4.192790     -2.364563     -0.728881
  H      -4.928766     -3.652760     -1.164512
  O      -4.781929      3.675621      0.177667
  H      -5.456798      4.217720     -0.243883
  H      -4.519523      3.019505     -0.504535
  O      -5.967549      1.500823      1.334673
  H      -5.268251      1.049176      1.821993
  H      -5.564537      2.350649      1.040630
  O      -5.004988     -1.079732     -3.047018
  H      -4.212596     -0.567925     -3.248357
  H      -4.675896     -1.879255     -2.575470
32
Coordinates from ORCA-job pb_P2_cplx E -1182.728171316498
  Pb     -5.975763      0.210597     -0.948847
  C       2.908620     -0.565023      0.715607
  O       1.673743     -0.018497      0.255231
  C       0.571697     -0.713154      0.557906
  O       0.618664     -1.750619      1.196323
  C      -0.659472     -0.102065      0.045188
  C      -1.870628     -0.748911      0.298274
  C      -3.068776     -0.223595     -0.169579
  O      -4.241679     -0.826314      0.054105
  C      -3.048352      0.977385     -0.913376
  O      -4.164795      1.516953     -1.390246
  C      -1.822522      1.612109     -1.151702
  O      -1.823663      2.775386     -1.872258
  C      -0.633855      1.088553     -0.684876
  H       2.918773     -0.629432      1.804221
  H       3.680192      0.121731      0.375422
  H       3.073878     -1.554500      0.287710
  H      -1.883932     -1.673087      0.863077
  H      -2.746088      2.946986     -2.115269
  H       0.294646      1.603579     -0.892241
  O      -4.170367     -3.099420     -1.390589
  H      -4.192463     -2.364604     -0.731753
  H      -4.926908     -3.652754     -1.170346
  O      -4.780732      3.676258      0.176145
  H      -5.453883      4.220445     -0.245529
  H      -4.520954      3.018406     -0.505449
  O      -5.965983      1.502241      1.336643
  H      -5.265675      1.054790      1.826161
  H      -5.565336      2.352484      1.041332
  O      -5.005579     -1.076319     -3.046930
  H      -4.212512     -0.565166     -3.247817
  H      -4.676848     -1.877713     -2.578166
32
Coordinates from ORCA-job pb_P2_cplx E -1182.728171690727
  Pb     -5.976161      0.209366     -0.946338
  C       2.908235     -0.562833      0.717254
  O       1.673344     -0.017988      0.254979
  C       0.571582     -0.713191      0.557337
  O       0.618873     -1.750264      1.196380
  C      -0.659791     -0.103080      0.044255
  C      -1.870825     -0.750214      0.297856
  C      -3.069246     -0.224987     -0.169214
  O      -4.241955     -0.827572      0.055695
  C      -3.049077      0.975778     -0.913212
  O      -4.165458      1.515051     -1.390330
  C      -1.823487      1.610672     -1.152232
  O      -1.825536      2.773515     -1.873687
  C      -0.634595      1.087440     -0.685827
  H       2.917129     -0.626044      1.805987
  H       3.679490      0.124494      0.377315
  H       3.074794     -1.552645      0.290583
  H      -1.884142     -1.674302      0.863141
  H      -2.748236      2.943592     -2.117184
  H       0.293775      1.602499     -0.894025
  O      -4.170023     -3.099667     -1.393116
  H      -4.192738     -2.365710     -0.733605
  H      -4.926673     -3.653583     -1.174748
  O      -4.776584      3.676724      0.176759
  H      -5.448233      4.223406     -0.244041
  H      -4.520501      3.017653     -0.505128
  O      -5.963832      1.503373      1.337555
  H      -5.263739      1.056706      1.828053
  H      -5.564204      2.353988      1.042074
  O      -5.006848     -1.074115     -3.046513
  H      -4.213028     -0.564260     -3.247648
  H      -4.678861     -1.877072     -2.580000
32
Coordinates from ORCA-job pb_P2_cplx E -1182.728179706994
  Pb     -5.977126      0.208206     -0.944583
  C       2.907675     -0.561397      0.718136
  O       1.672677     -0.017467      0.254885
  C       0.571209     -0.712825      0.557388
  O       0.618747     -1.749688      1.196814
  C      -0.660453     -0.103338      0.044203
  C      -1.871248     -0.750938      0.297868
  C      -3.069974     -0.226127     -0.168850
  O      -4.242375     -0.829261      0.056418
  C      -3.050119      0.974689     -0.912953
  O      -4.166578      1.513632     -1.390632
  C      -1.824791      1.609920     -1.151919
  O      -1.827469      2.772464     -1.873880
  C      -0.635656      1.087163     -0.685621
  H       2.916126     -0.623549      1.806995
  H       3.678612      0.126095      0.377992
  H       3.074975     -1.551524      0.292454
  H      -1.884292     -1.674765      0.863576
  H      -2.750236      2.941092     -2.118240
  H       0.292640      1.602156     -0.894142
  O      -4.169079     -3.100112     -1.395552
  H      -4.191833     -2.366745     -0.735348
  H      -4.925554     -3.654397     -1.178092
  O      -4.772387      3.676972      0.176747
  H      -5.443010      4.225451     -0.243415
  H      -4.519414      3.016905     -0.505312
  O      -5.961387      1.504804      1.337953
  H      -5.260882      1.057299      1.827069
  H      -5.561698      2.355597      1.043158
  O      -5.008423     -1.072931     -3.046005
  H      -4.214260     -0.563636     -3.247387
  H      -4.680970     -1.877014     -2.581354
32
Coordinates from ORCA-job pb_P2_cplx E -1182.728175608732
  Pb     -5.977563      0.207421     -0.943623
  C       2.907396     -0.560042      0.719006
  O       1.672264     -0.016829      0.254909
  C       0.571010     -0.712248      0.557597
  O       0.618725     -1.748870      1.197393
  C      -0.660893     -0.103316      0.044118
  C      -1.871425     -0.751327      0.297687
  C      -3.070419     -0.226923     -0.169110
  O      -4.242465     -0.830581      0.056364
  C      -3.050659      0.973779     -0.913238
  O      -4.167249      1.512487     -1.391249
  C      -1.825561      1.609484     -1.152122
  O      -1.828710      2.771724     -1.874393
  C      -0.636331      1.087257     -0.685526
  H       2.915362     -0.621345      1.807945
  H       3.677993      0.127636      0.378604
  H       3.075342     -1.550471      0.294281
  H      -1.884211     -1.674989      0.863686
  H      -2.751432      2.939284     -2.119642
  H       0.292006      1.602365     -0.893895
  O      -4.169462     -3.100875     -1.397452
  H      -4.191776     -2.368288     -0.736502
  H      -4.926025     -3.655338     -1.180389
  O      -4.768563      3.676915      0.177602
  H      -5.438976      4.226349     -0.241616
  H      -4.517085      3.017058     -0.505103
  O      -5.959971      1.505989      1.338254
  H      -5.259252      1.056400      1.825248
  H      -5.559335      2.356300      1.043019
  O      -5.010227     -1.072013     -3.045232
  H      -4.215769     -0.563121     -3.246083
  H      -4.683291     -1.877140     -2.582166
32
Coordinates from ORCA-job pb_P2_cplx E -1182.728187313920
  Pb     -5.978215      0.207164     -0.942452
  C       2.907005     -0.559014      0.719855
  O       1.671813     -0.016232      0.255258
  C       0.570682     -0.711598      0.558300
  O       0.618444     -1.748000      1.198435
  C      -0.661367     -0.102992      0.044496
  C      -1.871673     -0.751276      0.297932
  C      -3.070829     -0.227340     -0.169307
  O      -4.242630     -0.831533      0.055859
  C      -3.051189      0.973216     -0.913584
  O      -4.167975      1.511664     -1.391836
  C      -1.826226      1.609111     -1.152528
  O      -1.829536      2.771064     -1.875050
  C      -0.636926      1.087346     -0.685499
  H       2.914771     -0.619579      1.808819
  H       3.677469      0.128598      0.379024
  H       3.075194     -1.549719      0.295888
  H      -1.884165     -1.675032      0.863911
  H      -2.752199      2.938303     -2.120768
  H       0.291429      1.602442     -0.893619
  O      -4.169255     -3.101406     -1.399395
  H      -4.191305     -2.369236     -0.737963
  H      -4.925619     -3.655973     -1.182035
  O      -4.765544      3.676568      0.177968
  H      -5.435942      4.226717     -0.240275
  H      -4.514938      3.017165     -0.505348
  O      -5.958185      1.506701      1.339094
  H      -5.256583      1.054959      1.822846
  H      -5.556385      2.356389      1.043496
  O      -5.012668     -1.071734     -3.045015
  H      -4.218232     -0.562585     -3.245173
  H      -4.685774     -1.877428     -2.582963
32
Coordinates from ORCA-job pb_P2_cplx E -1182.728188868605
  Pb     -5.978571      0.206839     -0.941526
  C       2.906981     -0.558558      0.720061
  O       1.671692     -0.015824      0.255583
  C       0.570611     -0.711172      0.558980
  O       0.618484     -1.747443      1.199292
  C      -0.661510     -0.102736      0.045031
  C      -1.871663     -0.751222      0.298329
  C      -3.070871     -0.227668     -0.169316
  O      -4.242520     -0.832225      0.055325
  C      -3.051396      0.972852     -0.913558
  O      -4.168316      1.511036     -1.391861
  C      -1.826507      1.608989     -1.152563
  O      -1.829936      2.770916     -1.875098
  C      -0.637181      1.087545     -0.685237
  H       2.915020     -0.618739      1.809026
  H       3.677408      0.128788      0.378668
  H       3.074918     -1.549450      0.296453
  H      -1.883954     -1.674903      0.864217
  H      -2.752501      2.937982     -2.121088
  H       0.291148      1.602869     -0.892977
  O      -4.169403     -3.101913     -1.400563
  H      -4.191426     -2.369936     -0.738955
  H      -4.925718     -3.656526     -1.182902
  O      -4.764031      3.676352      0.177891
  H      -5.434590      4.226842     -0.239641
  H      -4.513815      3.017312     -0.505891
  O      -5.957447      1.507212      1.339386
  H      -5.255532      1.054740      1.822069
  H      -5.554934      2.356289      1.042807
  O      -5.014115     -1.071738     -3.045439
  H      -4.219662     -0.562106     -3.244307
  H      -4.687212     -1.877678     -2.583824
32
Coordinates from ORCA-job pb_P2_cplx E -1182.728179141927
  Pb     -5.978937      0.206758     -0.940547
  C       2.906763     -0.557613      0.721107
  O       1.671532     -0.015146      0.256274
  C       0.570418     -0.710530      0.559810
  O       0.618274     -1.746455      1.200608
  C      -0.661647     -0.102448      0.045302
  C      -1.871693     -0.751139      0.298441
  C      -3.070882     -0.227982     -0.169715
  O      -4.242474     -0.832750      0.054451
  C      -3.051559      0.972452     -0.914105
  O      -4.168589      1.510289     -1.392462
  C      -1.826685      1.608596     -1.153404
  O      -1.830232      2.770224     -1.876378
  C      -0.637353      1.087488     -0.685713
  H       2.914792     -0.617149      1.810082
  H       3.677357      0.129383      0.379252
  H       3.074543     -1.548764      0.298049
  H      -1.883920     -1.674880      0.864273
  H      -2.752823      2.937160     -2.122398
  H       0.290922      1.602909     -0.893258
  O      -4.170190     -3.102240     -1.402052
  H      -4.192064     -2.370386     -0.740351
  H      -4.926441     -3.656830     -1.184015
  O      -4.762325      3.675708      0.178259
  H      -5.433087      4.226935     -0.238004
  H      -4.512963      3.017252     -0.506376
  O      -5.955376      1.507027      1.340753
  H      -5.252579      1.053885      1.821610
  H      -5.552583      2.355707      1.043388
  O      -5.016058     -1.071431     -3.046011
  H      -4.221412     -0.561589     -3.243772
  H      -4.689281     -1.877713     -2.584723
32
Coordinates from ORCA-job pb_P2_cplx E -1182.728183852078
  Pb     -5.979231      0.206753     -0.939999
  C       2.906646     -0.557046      0.721586
  O       1.671428     -0.014658      0.256745
  C       0.570311     -0.710092      0.560361
  O       0.618233     -1.745843      1.201449
  C      -0.661707     -0.102252      0.045549
  C      -1.871710     -0.751134      0.298476
  C      -3.070850     -0.228258     -0.169978
  O      -4.242385     -0.833205      0.053732
  C      -3.051682      0.972188     -0.914375
  O      -4.168723      1.509820     -1.392792
  C      -1.826824      1.608401     -1.153662
  O      -1.830420      2.769957     -1.876847
  C      -0.637482      1.087556     -0.685748
  H       2.914890     -0.616147      1.810588
  H       3.677354      0.129650      0.379325
  H       3.074218     -1.548376      0.298828
  H      -1.883957     -1.674822      0.864316
  H      -2.753028      2.936766     -2.122904
  H       0.290711      1.603200     -0.893133
  O      -4.170947     -3.102582     -1.402658
  H      -4.192672     -2.370558     -0.741134
  H      -4.927185     -3.657069     -1.184356
  O      -4.761158      3.675351      0.178225
  H      -5.431903      4.227263     -0.237204
  H      -4.512870      3.016991     -0.506935
  O      -5.953829      1.506611      1.341202
  H      -5.251039      1.053404      1.821986
  H      -5.551016      2.355184      1.043600
  O      -5.017032     -1.071284     -3.046721
  H      -4.222196     -0.561385     -3.243696
  H      -4.690498     -1.877655     -2.585454
32
Coordinates from ORCA-job pb_P2_cplx E -1182.728179279733
  Pb     -5.979493      0.206889     -0.939992
  C       2.906295     -0.555979      0.722745
  O       1.671200     -0.013825      0.257493
  C       0.570024     -0.709300      0.560996
  O       0.617932     -1.744712      1.202645
  C      -0.661832     -0.101907      0.045489
  C      -1.871830     -0.751002      0.298052
  C      -3.070856     -0.228479     -0.170896
  O      -4.242386     -0.833614      0.052321
  C      -3.051774      0.971984     -0.915385
  O      -4.168755      1.509379     -1.394045
  C      -1.826926      1.608339     -1.154398
  O      -1.830547      2.769825     -1.877878
  C      -0.637632      1.087766     -0.686088
  H       2.914544     -0.614296      1.811790
  H       3.677207      0.130316      0.380050
  H       3.073741     -1.547604      0.300634
  H      -1.884232     -1.674573      0.864067
  H      -2.753194      2.936358     -2.124046
  H       0.290449      1.603650     -0.893279
  O      -4.172927     -3.103169     -1.403282
  H      -4.193970     -2.370814     -0.742072
  H      -4.929279     -3.657324     -1.184496
  O      -4.759059      3.674461      0.178889
  H      -5.430114      4.227482     -0.234647
  H      -4.512659      3.016648     -0.507500
  O      -5.950653      1.505403      1.342063
  H      -5.247588      1.051963      1.822242
  H      -5.548088      2.354127      1.044535
  O      -5.018450     -1.071396     -3.047562
  H      -4.223160     -0.561880     -3.243907
  H      -4.692539     -1.877986     -2.586161
32
Coordinates from ORCA-job pb_P2_cplx E -1182.728181613378
  Pb     -5.979600      0.207009     -0.940117
  C       2.906197     -0.555318      0.723204
  O       1.671071     -0.013435      0.257725
  C       0.569953     -0.708974      0.561224
  O       0.617926     -1.744230      1.203155
  C      -0.661886     -0.101860      0.045414
  C      -1.871877     -0.751112      0.297743
  C      -3.070870     -0.228706     -0.171375
  O      -4.242361     -0.833976      0.051688
  C      -3.051825      0.971787     -0.915834
  O      -4.168741      1.509186     -1.394606
  C      -1.826988      1.608239     -1.154570
  O      -1.830557      2.769657     -1.878147
  C      -0.637724      1.087807     -0.686067
  H       2.914439     -0.613163      1.812291
  H       3.677035      0.130923      0.380257
  H       3.073811     -1.547112      0.301519
  H      -1.884331     -1.674659      0.863859
  H      -2.753191      2.936079     -2.124461
  H       0.290315      1.603795     -0.893214
  O      -4.174284     -3.103403     -1.403492
  H      -4.194709     -2.370881     -0.742398
  H      -4.930758     -3.657234     -1.184384
  O      -4.758064      3.674121      0.179060
  H      -5.429166      4.227601     -0.233768
  H      -4.512433      3.016503     -0.507764
  O      -5.949184      1.504710      1.342214
  H      -5.246339      1.051071      1.822509
  H      -5.546610      2.353479      1.044912
  O      -5.018922     -1.071176     -3.047805
  H      -4.223356     -0.562015     -3.243900
  H      -4.693524     -1.877988     -2.586501
32
Coordinates from ORCA-job pb_P2_cplx E -1182.728178349300
  Pb     -5.979612      0.207220     -0.940715
  C       2.906020     -0.554576      0.723752
  O       1.670887     -0.013097      0.257840
  C       0.569824     -0.708625      0.561365
  O       0.617794     -1.743707      1.203618
  C      -0.662003     -0.101741      0.045234
  C      -1.872005     -0.751085      0.297340
  C      -3.070957     -0.228774     -0.172034
  O      -4.242428     -0.834205      0.050897
  C      -3.051875      0.971708     -0.916535
  O      -4.168698      1.509129     -1.395576
  C      -1.827083      1.608333     -1.154794
  O      -1.830533      2.769821     -1.878294
  C      -0.637856      1.088004     -0.686025
  H       2.914113     -0.611804      1.812880
  H       3.676758      0.131649      0.380563
  H       3.073898     -1.546572      0.302676
  H      -1.884493     -1.674558      0.863621
  H      -2.753111      2.936193     -2.124858
  H       0.290157      1.604109     -0.893060
  O      -4.176127     -3.103849     -1.403635
  H      -4.195528     -2.371120     -0.742676
  H      -4.932826     -3.657167     -1.183986
  O      -4.756749      3.673643      0.179572
  H      -5.428105      4.227592     -0.232206
  H      -4.511934      3.016490     -0.507927
  O      -5.947356      1.503776      1.342330
  H      -5.244477      1.049749      1.822159
  H      -5.544763      2.352644      1.045346
  O      -5.019357     -1.071286     -3.047932
  H      -4.223397     -0.562734     -3.243872
  H      -4.694728     -1.878434     -2.586696
32
Coordinates from ORCA-job pb_P2_cplx E -1182.728181295551
  Pb     -5.979595      0.207310     -0.940744
  C       2.906067     -0.554441      0.723810
  O       1.670911     -0.013138      0.257695
  C       0.569876     -0.708591      0.561372
  O       0.617835     -1.743596      1.203746
  C      -0.661993     -0.101738      0.045209
  C      -1.871983     -0.751125      0.297270
  C      -3.070939     -0.228817     -0.172142
  O      -4.242390     -0.834301      0.050811
  C      -3.051836      0.971656     -0.916621
  O      -4.168649      1.509102     -1.395706
  C      -1.827060      1.608346     -1.154771
  O      -1.830467      2.769840     -1.878197
  C      -0.637843      1.088028     -0.685958
  H       2.914096     -0.611379      1.812958
  H       3.676730      0.131777      0.380481
  H       3.074034     -1.546547      0.303035
  H      -1.884405     -1.674615      0.863546
  H      -2.753003      2.936257     -2.124840
  H       0.290181      1.604126     -0.892971
  O      -4.176618     -3.103856     -1.403800
  H      -4.195551     -2.371115     -0.742827
  H      -4.933397     -3.656938     -1.183841
  O      -4.756683      3.673467      0.179493
  H      -5.428101      4.227384     -0.232189
  H      -4.511740      3.016459     -0.508073
  O      -5.947188      1.503589      1.342355
  H      -5.244375      1.049606      1.822344
  H      -5.544525      2.352412      1.045346
  O      -5.019466     -1.071173     -3.047926
  H      -4.223382     -0.562765     -3.243679
  H      -4.695093     -1.878494     -2.586815
32
Coordinates from ORCA-job pb_P2_cplx E -1182.728180516898
  Pb     -5.979570      0.207301     -0.940795
  C       2.906121     -0.554418      0.723777
  O       1.670967     -0.013233      0.257469
  C       0.569936     -0.708568      0.561366
  O       0.617851     -1.743499      1.203846
  C      -0.661980     -0.101708      0.045224
  C      -1.871948     -0.751126      0.297299
  C      -3.070918     -0.228832     -0.172140
  O      -4.242351     -0.834347      0.050856
  C      -3.051811      0.971619     -0.916628
  O      -4.168646      1.509067     -1.395753
  C      -1.827068      1.608381     -1.154727
  O      -1.830422      2.769924     -1.878028
  C      -0.637835      1.088087     -0.685888
  H       2.914085     -0.611101      1.812939
  H       3.676757      0.131755      0.380325
  H       3.074095     -1.546628      0.303255
  H      -1.884248     -1.674636      0.863532
  H      -2.752909      2.936477     -2.124726
  H       0.290192      1.604221     -0.892835
  O      -4.176916     -3.103916     -1.404047
  H      -4.195419     -2.371206     -0.743032
  H      -4.933791     -3.656740     -1.183756
  O      -4.756654      3.673315      0.179480
  H      -5.428114      4.227224     -0.232127
  H      -4.511599      3.016413     -0.508144
  O      -5.947257      1.503571      1.342315
  H      -5.244369      1.049748      1.822347
  H      -5.544546      2.352323      1.045106
  O      -5.019505     -1.071160     -3.047889
  H      -4.223271     -0.562882     -3.243323
  H      -4.695407     -1.878694     -2.586925
