32
Coordinates from ORCA-job pb_P2_cplx E -1182.728180516898
  Pb         -5.97956987998008      0.20730080218328     -0.94079490572887
  C           2.90612099076886     -0.55441755529207      0.72377724956616
  O           1.67096693512717     -0.01323325668543      0.25746853094507
  C           0.56993610891827     -0.70856828993963      0.56136630014998
  O           0.61785057790017     -1.74349905227911      1.20384622039060
  C          -0.66197963547119     -0.10170818559770      0.04522380974762
  C          -1.87194821733823     -0.75112608359478      0.29729888445680
  C          -3.07091823329336     -0.22883201108700     -0.17213993906281
  O          -4.24235080721428     -0.83434745630428      0.05085569881153
  C          -3.05181102355331      0.97161901211562     -0.91662776819181
  O          -4.16864608168599      1.50906676964786     -1.39575285435138
  C          -1.82706821217847      1.60838080765222     -1.15472715417727
  O          -1.83042218374858      2.76992432715141     -1.87802787649234
  C          -0.63783540737774      1.08808675590690     -0.68588778233992
  H           2.91408528130863     -0.61110093865926      1.81293945785140
  H           3.67675650639542      0.13175509271190      0.38032549439427
  H           3.07409500497662     -1.54662824643118      0.30325473935759
  H          -1.88424788009040     -1.67463611037821      0.86353162874466
  H          -2.75290923696720      2.93647692739034     -2.12472639667277
  H           0.29019229043650      1.60422121437740     -0.89283520745728
  O          -4.17691634701538     -3.10391610635834     -1.40404657447579
  H          -4.19541891909686     -2.37120620929117     -0.74303240999785
  H          -4.93379146359307     -3.65674027367788     -1.18375630539963
  O          -4.75665376978111      3.67331454149014      0.17948011642349
  H          -5.42811413555595      4.22722438952930     -0.23212739556838
  H          -4.51159885474646      3.01641287250473     -0.50814402432595
  O          -5.94725734114869      1.50357079016162      1.34231545584721
  H          -5.24436888498133      1.04974809923009      1.82234727753606
  H          -5.54454621099494      2.35232310113507      1.04510626687442
  O          -5.01950512798522     -1.07115987856240     -3.04788882843299
  H          -4.22327057209534     -0.56288203386627     -3.24332313482023
  H          -4.69540704993816     -1.87869401518325     -2.58692510360155
