25
Coordinates from ORCA-job pb_aquo8 E -803.822759456741
  Pb     -0.155137      0.025254     -0.034296
  O       1.302468     -0.083091      2.090517
  H       2.106488     -0.525756      1.794284
  H       0.965520     -0.580085      2.843024
  O       0.668301      2.395351      0.745365
  H       0.052511      3.107711      0.944754
  H       1.175813      2.218376      1.545955
  O      -2.136234      0.081210      1.639241
  H      -2.015165      0.487299      2.503403
  H      -2.328073     -0.852751      1.786894
  O      -0.823072     -2.326479      0.817576
  H      -0.100897     -2.884570      1.124033
  H      -1.194725     -2.748181      0.033853
  O       1.560877      1.149716     -1.667500
  H       1.824180      1.922559     -1.153506
  H       1.300042      1.465311     -2.538566
  O      -2.360586      0.959373     -1.113460
  H      -2.403385      1.821477     -1.539294
  H      -2.991886      0.963774     -0.384694
  O      -1.102229     -1.495572     -1.930373
  H      -0.652119     -1.528163     -2.780587
  H      -1.964764     -1.092161     -2.084970
  O       1.977370     -1.406401     -0.415407
  H       2.523152     -0.832700     -0.966397
  H       1.854926     -2.227495     -0.902815
25
Coordinates from ORCA-job pb_aquo8 E -803.825289535393
  Pb     -0.154470      0.024268     -0.033528
  O       1.315106     -0.086729      2.104006
  H       2.117887     -0.530322      1.806430
  H       0.976881     -0.586100      2.855033
  O       0.687993      2.418160      0.751681
  H       0.075546      3.132380      0.956494
  H       1.188898      2.231996      1.553606
  O      -2.165182      0.079892      1.652669
  H      -2.045791      0.481904      2.519766
  H      -2.343591     -0.856205      1.798591
  O      -0.820552     -2.338232      0.824259
  H      -0.093980     -2.893378      1.127211
  H      -1.187954     -2.759331      0.038193
  O       1.596719      1.165163     -1.683760
  H       1.851987      1.938068     -1.164765
  H       1.340943      1.486397     -2.554798
  O      -2.402829      0.965097     -1.125346
  H      -2.454699      1.828906     -1.547608
  H      -3.027999      0.967310     -0.390876
  O      -1.118692     -1.512196     -1.947266
  H      -0.673677     -1.543718     -2.800975
  H      -1.978621     -1.101646     -2.098036
  O       1.993856     -1.417324     -0.413840
  H       2.536047     -0.842319     -0.967496
  H       1.869550     -2.238036     -0.902612
25
Coordinates from ORCA-job pb_aquo8 E -803.827075024019
  Pb     -0.154582      0.023589     -0.033618
  O       1.327903     -0.088994      2.116475
  H       2.129129     -0.534422      1.817594
  H       0.989001     -0.591682      2.864961
  O       0.709767      2.442143      0.757796
  H       0.101331      3.157471      0.970753
  H       1.202130      2.244040      1.562311
  O      -2.195703      0.080138      1.662337
  H      -2.077407      0.476185      2.532349
  H      -2.357124     -0.859437      1.807474
  O      -0.817748     -2.348919      0.831259
  H      -0.085858     -2.900456      1.128942
  H      -1.179245     -2.769122      0.041551
  O       1.633092      1.177664     -1.697993
  H       1.876763      1.950598     -1.173765
  H       1.382765      1.506104     -2.567880
  O      -2.445340      0.968654     -1.138071
  H      -2.508065      1.834441     -1.554653
  H      -3.062079      0.969941     -0.396695
  O      -1.136342     -1.530049     -1.962242
  H      -0.697910     -1.559666     -2.819507
  H      -1.992275     -1.109410     -2.109112
  O       2.010395     -1.427539     -0.411556
  H       2.546587     -0.850517     -0.969134
  H       1.884188     -2.246750     -0.902544
25
Coordinates from ORCA-job pb_aquo8 E -803.828216577809
  Pb     -0.155718      0.022110     -0.034811
  O       1.337786     -0.091430      2.130212
  H       2.137350     -0.540807      1.831939
  H       0.998318     -0.599320      2.875210
  O       0.729496      2.468192      0.764919
  H       0.123486      3.182190      0.989757
  H       1.206370      2.255352      1.575638
  O      -2.223454      0.086021      1.669267
  H      -2.100353      0.475029      2.542069
  H      -2.361375     -0.857079      1.819443
  O      -0.814594     -2.360864      0.839394
  H      -0.075696     -2.908031      1.128736
  H      -1.165395     -2.780958      0.044475
  O       1.668969      1.185742     -1.713193
  H       1.891278      1.961890     -1.184021
  H       1.421486      1.522778     -2.580784
  O      -2.487969      0.971547     -1.153175
  H      -2.561608      1.840874     -1.560949
  H      -3.091043      0.977680     -0.400556
  O      -1.150776     -1.550755     -1.976571
  H      -0.717999     -1.575826     -2.837076
  H      -1.998716     -1.112841     -2.122980
  O       2.025753     -1.440127     -0.409316
  H       2.551440     -0.861334     -0.975307
  H       1.896341     -2.256027     -0.905286
25
Coordinates from ORCA-job pb_aquo8 E -803.828767390262
  Pb     -0.157239      0.020041     -0.036295
  O       1.341369     -0.093676      2.140314
  H       2.139385     -0.547621      1.843983
  H       1.001607     -0.606699      2.882012
  O       0.740019      2.486784      0.770827
  H       0.132817      3.196833      1.006274
  H       1.200148      2.260937      1.588344
  O      -2.239270      0.095365      1.672166
  H      -2.106385      0.480200      2.545852
  H      -2.355561     -0.849935      1.830558
  O      -0.812564     -2.369975      0.846075
  H      -0.066916     -2.912849      1.127276
  H      -1.151898     -2.790402      0.045948
  O       1.691308      1.187156     -1.724484
  H       1.889523      1.967902     -1.191671
  H       1.441433      1.530071     -2.589440
  O      -2.514719      0.972384     -1.165530
  H      -2.593704      1.845498     -1.564963
  H      -3.103064      0.986933     -0.400914
  O      -1.155977     -1.566476     -1.984956
  H      -0.724066     -1.585699     -2.846420
  H      -1.994249     -1.110082     -2.134054
  O       2.033851     -1.450268     -0.408632
  H       2.547701     -0.870255     -0.984778
  H       1.899828     -2.262162     -0.910459
25
Coordinates from ORCA-job pb_aquo8 E -803.829135264398
  Pb     -0.158911      0.017358     -0.037808
  O       1.339406     -0.095903      2.147820
  H       2.135955     -0.554859      1.854210
  H       0.998980     -0.613860      2.886190
  O       0.743303      2.499656      0.776057
  H       0.131346      3.203166      1.020133
  H       1.185892      2.261263      1.600264
  O      -2.245202      0.107184      1.673102
  H      -2.097266      0.491197      2.545191
  H      -2.341736     -0.839176      1.841360
  O      -0.811824     -2.377249      0.851740
  H      -0.059202     -2.915025      1.125256
  H      -1.139281     -2.797749      0.046277
  O       1.703108      1.184109     -1.732953
  H       1.874598      1.969523     -1.196911
  H       1.445641      1.529859     -2.594885
  O      -2.529084      0.971385     -1.175949
  H      -2.607779      1.848388     -1.567644
  H      -3.100714      0.996463     -0.398432
  O      -1.153843     -1.578146     -1.989304
  H      -0.717592     -1.590303     -2.849067
  H      -1.980795     -1.102123     -2.142949
  O       2.036282     -1.458344     -0.409771
  H       2.536684     -0.877149     -0.997188
  H       1.895412     -2.265663     -0.917705
25
Coordinates from ORCA-job pb_aquo8 E -803.829549515124
  Pb     -0.160773      0.013587     -0.039480
  O       1.331161     -0.098462      2.153739
  H       2.126006     -0.563482      1.863783
  H       0.989177     -0.621625      2.888184
  O       0.739507      2.508036      0.781328
  H       0.117958      3.201071      1.032337
  H       1.161719      2.255260      1.612495
  O      -2.241299      0.123053      1.672940
  H      -2.069943      0.510418      2.539677
  H      -2.318018     -0.823332      1.853536
  O      -0.812645     -2.383729      0.857249
  H      -0.051541     -2.914156      1.122831
  H      -1.126489     -2.803549      0.045571
  O       1.705391      1.176670     -1.739567
  H       1.843786      1.966617     -1.199795
  H       1.433025      1.521743     -2.597486
  O      -2.532547      0.968094     -1.185814
  H      -2.604094      1.849583     -1.569442
  H      -3.082417      1.006635     -0.392638
  O      -1.143651     -1.586917     -1.990551
  H      -0.695948     -1.589610     -2.844820
  H      -1.955853     -1.087517     -2.150829
  O       2.033233     -1.465235     -0.413599
  H       2.516359     -0.882343     -1.014490
  H       1.881274     -2.266808     -0.928126
25
Coordinates from ORCA-job pb_aquo8 E -803.830122457479
  Pb     -0.162710      0.008359     -0.041387
  O       1.313880     -0.101285      2.157599
  H       2.106630     -0.573719      1.872329
  H       0.968488     -0.629745      2.887159
  O       0.726176      2.509898      0.786490
  H       0.087934      3.186555      1.041163
  H       1.124665      2.239712      1.624320
  O      -2.223302      0.144129      1.672165
  H      -2.015542      0.540990      2.526915
  H      -2.281231     -0.800869      1.867969
  O      -0.816184     -2.389105      0.862675
  H      -0.044189     -2.908241      1.120290
  H      -1.114492     -2.806719      0.043580
  O       1.694575      1.164269     -1.743325
  H       1.791677      1.957431     -1.198603
  H       1.396329      1.502938     -2.595393
  O      -2.521120      0.961223     -1.194906
  H      -2.574934      1.847889     -1.569872
  H      -3.041743      1.016267     -0.382497
  O      -1.122625     -1.591400     -1.988288
  H      -0.652689     -1.581120     -2.830710
  H      -1.915349     -1.064040     -2.157511
  O       2.022867     -1.470315     -0.421894
  H       2.483362     -0.884495     -1.038407
  H       1.852907     -2.264601     -0.942828
25
Coordinates from ORCA-job pb_aquo8 E -803.830716941312
  Pb     -0.163322      0.003242     -0.042965
  O       1.292353     -0.103161      2.157623
  H       2.083026     -0.581860      1.876004
  H       0.941496     -0.634611      2.882666
  O       0.707759      2.502659      0.789499
  H       0.049274      3.160647      1.041336
  H       1.087276      2.216473      1.630506
  O      -2.196476      0.163280      1.672927
  H      -1.948209      0.574571      2.509863
  H      -2.244222     -0.779273      1.881628
  O      -0.822395     -2.390729      0.866587
  H      -0.039764     -2.896335      1.119485
  H      -1.108936     -2.804356      0.041148
  O       1.673399      1.152397     -1.741870
  H       1.734633      1.945206     -1.191813
  H       1.343717      1.478488     -2.587239
  O      -2.496949      0.951340     -1.200117
  H      -2.524836      1.841888     -1.568513
  H      -2.989045      1.019208     -0.371052
  O      -1.096999     -1.589253     -1.984025
  H      -0.598078     -1.566144     -2.809310
  H      -1.871757     -1.038774     -2.161595
  O       2.008080     -1.471135     -0.434016
  H       2.447268     -0.880821     -1.062221
  H       1.816084     -2.258938     -0.957505
25
Coordinates from ORCA-job pb_aquo8 E -803.831151023540
  Pb     -0.162315     -0.001488     -0.044065
  O       1.272084     -0.103659      2.156795
  H       2.060595     -0.587151      1.877257
  H       0.912991     -0.635607      2.877502
  O       0.695084      2.493105      0.789998
  H       0.016596      3.132638      1.035103
  H       1.059537      2.191521      1.631873
  O      -2.174265      0.176692      1.679216
  H      -1.886369      0.602050      2.495918
  H      -2.216237     -0.763668      1.897313
  O      -0.829841     -2.389765      0.870342
  H      -0.037014     -2.880381      1.120910
  H      -1.107630     -2.798165      0.039475
  O       1.659325      1.147980     -1.739131
  H       1.692926      1.938497     -1.183355
  H       1.298715      1.459186     -2.577313
  O      -2.477782      0.939488     -1.203965
  H      -2.478281      1.832744     -1.566268
  H      -2.944502      1.014737     -0.361141
  O      -1.076609     -1.586736     -1.982809
  H      -0.547117     -1.551813     -2.788169
  H      -1.837208     -1.018774     -2.167572
  O       1.995331     -1.470535     -0.447720
  H       2.416516     -0.874251     -1.082935
  H       1.778847     -2.252641     -0.970226
25
Coordinates from ORCA-job pb_aquo8 E -803.831477031395
  Pb     -0.160026     -0.005585     -0.044383
  O       1.259960     -0.103597      2.158256
  H       2.046263     -0.590292      1.878990
  H       0.891883     -0.634747      2.874895
  O       0.695742      2.487022      0.789000
  H       0.001540      3.111467      1.027879
  H       1.047886      2.171008      1.630728
  O      -2.167957      0.183873      1.690018
  H      -1.849311      0.619090      2.489602
  H      -2.203668     -0.755187      1.914113
  O      -0.835878     -2.387917      0.874842
  H      -0.034034     -2.864249      1.124024
  H      -1.106946     -2.791372      0.039582
  O       1.662945      1.153270     -1.737936
  H       1.678191      1.941247     -1.177260
  H       1.277619      1.452165     -2.569447
  O      -2.477397      0.927765     -1.208799
  H      -2.456673      1.823208     -1.564547
  H      -2.924615      1.005560     -0.355794
  O      -1.068843     -1.588611     -1.987658
  H      -0.514395     -1.543775     -2.775303
  H      -1.819859     -1.008938     -2.177623
  O       1.990719     -1.470876     -0.459282
  H       2.398444     -0.868537     -1.097741
  H       1.751785     -2.247985     -0.979122
25
Coordinates from ORCA-job pb_aquo8 E -803.831922330686
  Pb     -0.155789     -0.011289     -0.044244
  O       1.249528     -0.102790      2.163624
  H       2.032726     -0.593063      1.883347
  H       0.866696     -0.631581      2.873989
  O       0.711455      2.481413      0.786072
  H      -0.002448      3.086019      1.016671
  H       1.046332      2.144671      1.626831
  O      -2.172992      0.189400      1.708653
  H      -1.816598      0.635019      2.485941
  H      -2.198117     -0.747971      1.939603
  O      -0.843641     -2.383722      0.881892
  H      -0.029431     -2.839118      1.129665
  H      -1.105696     -2.780715      0.040888
  O       1.685927      1.170190     -1.736522
  H       1.682536      1.954317     -1.170228
  H       1.268478      1.452920     -2.557935
  O      -2.497580      0.909000     -1.217067
  H      -2.450473      1.807663     -1.561393
  H      -2.921075      0.986972     -0.352371
  O      -1.070122     -1.595977     -2.000983
  H      -0.483642     -1.537030     -2.763799
  H      -1.810593     -1.004874     -2.197843
  O       1.992290     -1.472222     -0.474213
  H       2.383972     -0.861373     -1.114526
  H       1.721637     -2.241856     -0.989019
25
Coordinates from ORCA-job pb_aquo8 E -803.832188031427
  Pb     -0.153091     -0.016493     -0.044530
  O       1.240813     -0.101896      2.171296
  H       2.021055     -0.596624      1.891400
  H       0.844020     -0.629628      2.874562
  O       0.731677      2.479309      0.783872
  H      -0.000357      3.063738      1.009702
  H       1.046119      2.122433      1.625309
  O      -2.179788      0.197287      1.722252
  H      -1.788947      0.649179      2.479200
  H      -2.190060     -0.738197      1.962401
  O      -0.849570     -2.379537      0.888428
  H      -0.023386     -2.815097      1.132909
  H      -1.099874     -2.772597      0.041796
  O       1.713136      1.185339     -1.734779
  H       1.690056      1.966775     -1.164287
  H       1.265234      1.454372     -2.544604
  O      -2.526433      0.889828     -1.226192
  H      -2.455733      1.792268     -1.556272
  H      -2.927060      0.970916     -0.350251
  O      -1.074426     -1.605975     -2.014532
  H      -0.460734     -1.531178     -2.754133
  H      -1.803187     -1.003092     -2.219417
  O       1.996062     -1.474484     -0.486673
  H       2.371552     -0.857862     -1.131197
  H       1.696299     -2.234780     -0.999228
25
Coordinates from ORCA-job pb_aquo8 E -803.832335156728
  Pb     -0.152282     -0.019408     -0.045062
  O       1.233112     -0.100383      2.177211
  H       2.011828     -0.598554      1.899013
  H       0.825043     -0.627286      2.874449
  O       0.750232      2.476560      0.781761
  H       0.005598      3.046706      1.003943
  H       1.049702      2.107644      1.623087
  O      -2.182109      0.203408      1.728735
  H      -1.769821      0.659255      2.472196
  H      -2.181339     -0.729890      1.976784
  O      -0.852983     -2.374087      0.891112
  H      -0.019487     -2.796058      1.133939
  H      -1.094490     -2.766414      0.041335
  O       1.733906      1.196101     -1.730023
  H       1.700751      1.975220     -1.158289
  H       1.264919      1.455415     -2.531183
  O      -2.551947      0.873432     -1.230515
  H      -2.464052      1.778477     -1.549772
  H      -2.939151      0.956238     -0.349492
  O      -1.079282     -1.612783     -2.023649
  H      -0.447822     -1.526213     -2.747015
  H      -1.800533     -1.004764     -2.236499
  O       1.998970     -1.474825     -0.495084
  H       2.364778     -0.856090     -1.142719
  H       1.679834     -2.227698     -1.007232
25
Coordinates from ORCA-job pb_aquo8 E -803.832421400278
  Pb     -0.153164     -0.019763     -0.046147
  O       1.228072     -0.098674      2.180558
  H       2.006500     -0.599004      1.905131
  H       0.812848     -0.625240      2.873681
  O       0.764906      2.474379      0.780085
  H       0.014675      3.038284      1.000166
  H       1.057074      2.101562      1.621967
  O      -2.181213      0.206975      1.728438
  H      -1.762957      0.664947      2.467593
  H      -2.175349     -0.724871      1.981772
  O      -0.853389     -2.368682      0.889992
  H      -0.017451     -2.785013      1.133460
  H      -1.090130     -2.763205      0.039832
  O       1.746164      1.201081     -1.724051
  H       1.711436      1.979673     -1.152698
  H       1.268257      1.456162     -2.521343
  O      -2.571058      0.862294     -1.230441
  H      -2.474874      1.768488     -1.544386
  H      -2.955402      0.945430     -0.348863
  O      -1.083066     -1.615808     -2.027021
  H      -0.444554     -1.523974     -2.743722
  H      -1.801913     -1.008240     -2.246834
  O       2.000393     -1.473808     -0.499039
  H       2.363738     -0.856171     -1.148579
  H       1.673833     -2.222818     -1.012518
25
Coordinates from ORCA-job pb_aquo8 E -803.832538298805
  Pb     -0.156382     -0.017979     -0.049326
  O       1.219507     -0.095398      2.183717
  H       1.998282     -0.599012      1.914842
  H       0.794207     -0.621986      2.870625
  O       0.787181      2.470835      0.777454
  H       0.032044      3.029670      0.994440
  H       1.072477      2.097003      1.621196
  O      -2.174974      0.212077      1.722895
  H      -1.758019      0.673409      2.461098
  H      -2.165725     -0.717893      1.983827
  O      -0.851916     -2.358992      0.884495
  H      -0.015258     -2.771604      1.131576
  H      -1.083482     -2.759999      0.035884
  O       1.759927      1.204857     -1.712292
  H       1.727715      1.984109     -1.142073
  H       1.275256      1.456682     -2.506503
  O      -2.597830      0.845650     -1.226353
  H      -2.492860      1.752629     -1.535309
  H      -2.984958      0.928554     -0.346321
  O      -1.087166     -1.617628     -2.027649
  H      -0.443565     -1.522509     -2.739664
  H      -1.805601     -1.014806     -2.259605
  O       2.000028     -1.470735     -0.503633
  H       2.364807     -0.856929     -1.155635
  H       1.669682     -2.216001     -1.020652
25
Coordinates from ORCA-job pb_aquo8 E -803.832636160886
  Pb     -0.160632     -0.014211     -0.054159
  O       1.210422     -0.092158      2.184029
  H       1.989927     -0.598873      1.922946
  H       0.776745     -0.619246      2.865354
  O       0.805158      2.468030      0.775127
  H       0.048435      3.025916      0.989010
  H       1.088273      2.096458      1.620883
  O      -2.165236      0.216293      1.715937
  H      -1.757277      0.681341      2.456939
  H      -2.157856     -0.712423      1.982518
  O      -0.849269     -2.349927      0.876610
  H      -0.014365     -2.762985      1.129486
  H      -1.078531     -2.758758      0.031089
  O       1.766884      1.205432     -1.700772
  H       1.739717      1.985819     -1.131106
  H       1.281558      1.457216     -2.494505
  O      -2.615753      0.831172     -1.219260
  H      -2.505548      1.738084     -1.526291
  H      -3.010149      0.913060     -0.342037
  O      -1.088053     -1.616672     -2.024543
  H      -0.443615     -1.523816     -2.736301
  H      -1.808746     -1.021029     -2.267725
  O       1.996262     -1.466812     -0.507681
  H       2.366572     -0.856853     -1.160439
  H       1.668455     -2.211052     -1.028077
25
Coordinates from ORCA-job pb_aquo8 E -803.832721744129
  Pb     -0.165174     -0.009352     -0.060995
  O       1.199528     -0.089452      2.182310
  H       1.979450     -0.599853      1.929917
  H       0.757718     -0.617669      2.857674
  O       0.819375      2.467329      0.773270
  H       0.061705      3.024917      0.983943
  H       1.101236      2.097113      1.620666
  O      -2.154127      0.220876      1.711828
  H      -1.756264      0.690392      2.455344
  H      -2.150678     -0.706917      1.982749
  O      -0.846552     -2.342515      0.868163
  H      -0.013956     -2.756822      1.127706
  H      -1.074544     -2.759052      0.026039
  O       1.770297      1.204933     -1.691572
  H       1.745556      1.985646     -1.120567
  H       1.285711      1.458361     -2.485143
  O      -2.625535      0.817323     -1.211268
  H      -2.510298      1.724020     -1.516671
  H      -3.026189      0.898610     -0.336044
  O      -1.085440     -1.615007     -2.020341
  H      -0.440343     -1.527736     -2.732271
  H      -1.808604     -1.025758     -2.273293
  O       1.989210     -1.462948     -0.513274
  H       2.365781     -0.855059     -1.165133
  H       1.665512     -2.207374     -1.036003
25
Coordinates from ORCA-job pb_aquo8 E -803.832824467587
  Pb     -0.170250     -0.002572     -0.071321
  O       1.185479     -0.086945      2.179004
  H       1.965395     -0.602486      1.937332
  H       0.733196     -0.616761      2.846345
  O       0.835519      2.469850      0.771449
  H       0.077111      3.027498      0.978458
  H       1.115446      2.098833      1.619499
  O      -2.143280      0.226002      1.712541
  H      -1.757719      0.701263      2.458557
  H      -2.145076     -0.700825      1.986976
  O      -0.843242     -2.335312      0.858236
  H      -0.013777     -2.750722      1.126466
  H      -1.070392     -2.760428      0.020237
  O       1.775363      1.205996     -1.683854
  H       1.750911      1.984844     -1.108923
  H       1.292818      1.463485     -2.477352
  O      -2.632801      0.800514     -1.201580
  H      -2.511972      1.707256     -1.504560
  H      -3.038683      0.880889     -0.328155
  O      -1.081052     -1.613956     -2.016580
  H      -0.434970     -1.536542     -2.728730
  H      -1.807162     -1.031950     -2.278998
  O       1.978909     -1.458679     -0.521912
  H       2.363205     -0.851030     -1.170114
  H       1.660402     -2.204217     -1.045989
25
Coordinates from ORCA-job pb_aquo8 E -803.832977611711
  Pb     -0.176235      0.006682     -0.087202
  O       1.164756     -0.084983      2.174744
  H       1.943369     -0.609051      1.947530
  H       0.696587     -0.617381      2.829263
  O       0.857709      2.478326      0.770218
  H       0.096779      3.033628      0.973276
  H       1.130022      2.099964      1.618103
  O      -2.132447      0.234681      1.720824
  H      -1.758235      0.717691      2.467189
  H      -2.137296     -0.690619      1.999794
  O      -0.839062     -2.327687      0.846713
  H      -0.012462     -2.741786      1.125704
  H      -1.063307     -2.762885      0.013200
  O       1.787345      1.210173     -1.678212
  H       1.755343      1.983402     -1.094252
  H       1.305625      1.474603     -2.469968
  O      -2.642069      0.776022     -1.190867
  H      -2.512526      1.683532     -1.488173
  H      -3.047632      0.856867     -0.316648
  O      -1.074230     -1.616026     -2.015019
  H      -0.424668     -1.552567     -2.725231
  H      -1.801694     -1.039802     -2.287968
  O       1.963637     -1.454244     -0.536207
  H       2.355138     -0.844207     -1.178456
  H       1.648929     -2.200329     -1.061320
25
Coordinates from ORCA-job pb_aquo8 E -803.833101682183
  Pb     -0.180626      0.015432     -0.102594
  O       1.146333     -0.084484      2.170978
  H       1.922946     -0.616697      1.955878
  H       0.661997     -0.618489      2.812586
  O       0.880487      2.490365      0.770056
  H       0.118325      3.044749      0.970764
  H       1.143218      2.101361      1.615533
  O      -2.127726      0.241915      1.734754
  H      -1.763334      0.731097      2.481642
  H      -2.133314     -0.681915      2.016588
  O      -0.834681     -2.321215      0.837532
  H      -0.010998     -2.733376      1.126612
  H      -1.056383     -2.764590      0.007822
  O       1.805646      1.218552     -1.676472
  H       1.764689      1.982328     -1.081268
  H       1.327719      1.492732     -2.467341
  O      -2.653543      0.752635     -1.182272
  H      -2.519373      1.661394     -1.474615
  H      -3.055100      0.832741     -0.306553
  O      -1.070185     -1.621315     -2.017711
  H      -0.418968     -1.573291     -2.727463
  H      -1.798806     -1.050563     -2.297437
  O       1.949583     -1.450798     -0.549973
  H       2.347258     -0.837028     -1.184436
  H       1.638213     -2.197536     -1.075577
25
Coordinates from ORCA-job pb_aquo8 E -803.833202705118
  Pb     -0.182497      0.019428     -0.111382
  O       1.134711     -0.085708      2.169599
  H       1.909254     -0.623038      1.960554
  H       0.638893     -0.620071      2.802311
  O       0.895233      2.501003      0.771102
  H       0.132185      3.054139      0.972087
  H       1.147089      2.100413      1.614090
  O      -2.127038      0.247597      1.746939
  H      -1.764011      0.739566      2.492646
  H      -2.128586     -0.675103      2.031212
  O      -0.831733     -2.317347      0.834197
  H      -0.008662     -2.726929      1.128270
  H      -1.050310     -2.764551      0.005581
  O       1.823531      1.226164     -1.678163
  H       1.771494      1.980945     -1.072899
  H       1.348736      1.508358     -2.468081
  O      -2.664948      0.737559     -1.179429
  H      -2.530443      1.647539     -1.468441
  H      -3.057887      0.817709     -0.300120
  O      -1.068255     -1.628199     -2.022752
  H      -0.416464     -1.589149     -2.732392
  H      -1.795965     -1.057865     -2.305203
  O       1.940521     -1.449939     -0.558493
  H       2.339084     -0.832807     -1.188692
  H       1.629445     -2.195709     -1.085508
25
Coordinates from ORCA-job pb_aquo8 E -803.833337088764
  Pb     -0.185142      0.024560     -0.122498
  O       1.116861     -0.087150      2.167868
  H       1.888788     -0.631686      1.967119
  H       0.602527     -0.620106      2.786881
  O       0.920768      2.512701      0.772044
  H       0.156619      3.064825      0.972213
  H       1.155615      2.095198      1.611130
  O      -2.123265      0.256564      1.761275
  H      -1.761530      0.752729      2.504952
  H      -2.118563     -0.664130      2.051042
  O      -0.826959     -2.307144      0.828700
  H      -0.005318     -2.712973      1.130751
  H      -1.040656     -2.760563      0.002163
  O       1.853567      1.238233     -1.675862
  H       1.787741      1.978999     -1.056146
  H       1.384389      1.531824     -2.464927
  O      -2.690026      0.711873     -1.174214
  H      -2.556470      1.623042     -1.460597
  H      -3.071196      0.790396     -0.290144
  O      -1.067175     -1.637670     -2.029741
  H      -0.415369     -1.610525     -2.739855
  H      -1.794169     -1.070861     -2.318436
  O       1.927519     -1.447202     -0.570331
  H       2.328201     -0.826547     -1.195238
  H       1.616620     -2.190382     -1.101114
25
Coordinates from ORCA-job pb_aquo8 E -803.833452948699
  Pb     -0.187781      0.027647     -0.130743
  O       1.098511     -0.089059      2.166059
  H       1.867590     -0.639786      1.972335
  H       0.565581     -0.619190      2.771613
  O       0.945405      2.521236      0.772925
  H       0.180319      3.072672      0.971719
  H       1.161669      2.085941      1.607894
  O      -2.116012      0.266540      1.772166
  H      -1.751933      0.766934      2.512054
  H      -2.104037     -0.651802      2.068884
  O      -0.822166     -2.294369      0.824006
  H      -0.001307     -2.696489      1.133323
  H      -1.030358     -2.753565     -0.000992
  O       1.884887      1.248936     -1.670853
  H       1.803421      1.975356     -1.036114
  H       1.421676      1.553618     -2.459057
  O      -2.718587      0.684987     -1.169276
  H      -2.588263      1.596745     -1.455211
  H      -3.086168      0.761990     -0.279567
  O      -1.065444     -1.646117     -2.035311
  H      -0.414087     -1.628575     -2.746154
  H      -1.791585     -1.082309     -2.331297
  O       1.913919     -1.443956     -0.581193
  H       2.315625     -0.820305     -1.202581
  H       1.602502     -2.183074     -1.117597
25
Coordinates from ORCA-job pb_aquo8 E -803.833618601622
  Pb     -0.190775      0.028171     -0.135151
  O       1.080540     -0.091449      2.163522
  H       1.847218     -0.646304      1.975041
  H       0.528975     -0.616355      2.756559
  O       0.969871      2.525806      0.773032
  H       0.206689      3.080679      0.969624
  H       1.167768      2.072814      1.602483
  O      -2.105290      0.275577      1.778232
  H      -1.737852      0.780203      2.513820
  H      -2.087717     -0.640386      2.082573
  O      -0.816590     -2.278021      0.819603
  H       0.002693     -2.678082      1.136511
  H      -1.020255     -2.742771     -0.003764
  O       1.918180      1.258547     -1.661882
  H       1.821856      1.968783     -1.011383
  H       1.465779      1.576286     -2.450950
  O      -2.752002      0.657317     -1.163198
  H      -2.631956      1.568898     -1.453456
  H      -3.106162      0.730849     -0.268314
  O      -1.063814     -1.651967     -2.038391
  H      -0.416245     -1.643593     -2.752992
  H      -1.791259     -1.094014     -2.341708
  O       1.899846     -1.439473     -0.590163
  H       2.303699     -0.813573     -1.208206
  H       1.590181     -2.173935     -1.134409
25
Coordinates from ORCA-job pb_aquo8 E -803.833809802787
  Pb     -0.197150      0.031059     -0.143841
  O       1.050814     -0.093145      2.158774
  H       1.814129     -0.656892      1.981048
  H       0.473266     -0.612007      2.731991
  O       1.005497      2.530211      0.772241
  H       0.242181      3.086665      0.962838
  H       1.176165      2.052632      1.595987
  O      -2.084774      0.291629      1.782924
  H      -1.711435      0.805247      2.509362
  H      -2.060948     -0.620279      2.099354
  O      -0.809904     -2.254708      0.810806
  H       0.007369     -2.650063      1.138587
  H      -1.005764     -2.728450     -0.009460
  O       1.961824      1.268283     -1.645093
  H       1.840799      1.957927     -0.973508
  H       1.519020      1.601962     -2.432713
  O      -2.796162      0.611320     -1.152098
  H      -2.684676      1.522438     -1.446154
  H      -3.130721      0.684339     -0.248723
  O      -1.059164     -1.656219     -2.039077
  H      -0.412887     -1.659343     -2.755058
  H      -1.787369     -1.105853     -2.354918
  O       1.878412     -1.431698     -0.606100
  H       2.285598     -0.802010     -1.219546
  H       1.569256     -2.159039     -1.160591
25
Coordinates from ORCA-job pb_aquo8 E -803.834001496125
  Pb     -0.208915      0.038872     -0.157808
  O       1.009447     -0.093262      2.149280
  H       1.767448     -0.669925      1.988348
  H       0.396229     -0.602550      2.693527
  O       1.063275      2.533063      0.769453
  H       0.302877      3.096720      0.949054
  H       1.198882      2.025877      1.582098
  O      -2.057354      0.312480      1.786129
  H      -1.683209      0.840788      2.501454
  H      -2.031366     -0.593776      2.118707
  O      -0.800650     -2.219773      0.795153
  H       0.011383     -2.609437      1.141365
  H      -0.988267     -2.707573     -0.018638
  O       2.025797      1.283331     -1.614134
  H       1.876152      1.942012     -0.916109
  H       1.601218      1.642100     -2.400489
  O      -2.859928      0.538079     -1.131028
  H      -2.764247      1.448196     -1.432860
  H      -3.172499      0.608648     -0.219550
  O      -1.057489     -1.657824     -2.038473
  H      -0.414855     -1.680942     -2.757524
  H      -1.791159     -1.125959     -2.371349
  O       1.849143     -1.416985     -0.630099
  H       2.267277     -0.781830     -1.232083
  H       1.544186     -2.136324     -1.197391
25
Coordinates from ORCA-job pb_aquo8 E -803.834135751425
  Pb     -0.216810      0.043849     -0.166260
  O       0.989059     -0.092572      2.144877
  H       1.742093     -0.677555      1.993371
  H       0.360356     -0.599351      2.673901
  O       1.092493      2.535218      0.767556
  H       0.328871      3.096472      0.940187
  H       1.207742      2.012081      1.574538
  O      -2.047678      0.325381      1.789282
  H      -1.668136      0.863642      2.494136
  H      -2.018326     -0.577279      2.130432
  O      -0.798613     -2.207056      0.788857
  H       0.014575     -2.588940      1.142277
  H      -0.979323     -2.700973     -0.023069
  O       2.057821      1.289460     -1.598736
  H       1.888580      1.933622     -0.888415
  H       1.632669      1.657763     -2.380328
  O      -2.887267      0.497628     -1.121588
  H      -2.792210      1.408175     -1.422384
  H      -3.184196      0.572410     -0.204519
  O      -1.056430     -1.658049     -2.038790
  H      -0.409272     -1.686729     -2.753534
  H      -1.790398     -1.129957     -2.379507
  O       1.835563     -1.410074     -0.645881
  H       2.255281     -0.769032     -1.241685
  H       1.526931     -2.124129     -1.217686
25
Coordinates from ORCA-job pb_aquo8 E -803.834229986755
  Pb     -0.228390      0.041343     -0.164372
  O       0.986839     -0.091320      2.142034
  H       1.735452     -0.676620      1.993576
  H       0.357246     -0.597101      2.669286
  O       1.112102      2.529587      0.760375
  H       0.351657      3.096849      0.926046
  H       1.219017      2.000759      1.560320
  O      -2.050861      0.328572      1.779114
  H      -1.665318      0.877075      2.472386
  H      -2.027852     -0.572900      2.125656
  O      -0.798576     -2.206083      0.788974
  H       0.018658     -2.581537      1.144942
  H      -0.975992     -2.702096     -0.022674
  O       2.077820      1.289609     -1.582973
  H       1.897594      1.922831     -0.865983
  H       1.655290      1.667873     -2.361367
  O      -2.905980      0.474374     -1.115018
  H      -2.825372      1.385347     -1.418948
  H      -3.195593      0.550990     -0.197417
  O      -1.058438     -1.648276     -2.032010
  H      -0.411188     -1.673990     -2.746714
  H      -1.799578     -1.126043     -2.371259
  O       1.834120     -1.404170     -0.654849
  H       2.253827     -0.755441     -1.241598
  H       1.526893     -2.115627     -1.230494
25
Coordinates from ORCA-job pb_aquo8 E -803.834416228971
  Pb     -0.243481      0.049287     -0.175072
  O       0.983890     -0.087431      2.140464
  H       1.728781     -0.683174      2.001019
  H       0.351138     -0.596672      2.661280
  O       1.149751      2.534267      0.755306
  H       0.389278      3.103440      0.913990
  H       1.243121      1.997017      1.552165
  O      -2.066966      0.336914      1.774138
  H      -1.685595      0.896677      2.460290
  H      -2.047216     -0.561911      2.127815
  O      -0.797915     -2.208943      0.784375
  H       0.020892     -2.573865      1.144498
  H      -0.968469     -2.711005     -0.024500
  O       2.105843      1.291693     -1.568444
  H       1.915089      1.914143     -0.844918
  H       1.683403      1.681455     -2.341577
  O      -2.928361      0.438584     -1.105567
  H      -2.856850      1.351425     -1.408348
  H      -3.214146      0.520065     -0.187077
  O      -1.066205     -1.642289     -2.029375
  H      -0.417698     -1.669406     -2.742739
  H      -1.812525     -1.129366     -2.366690
  O       1.833647     -1.395048     -0.670577
  H       2.255132     -0.737070     -1.244751
  H       1.528838     -2.104781     -1.248672
25
Coordinates from ORCA-job pb_aquo8 E -803.834550792382
  Pb     -0.259725      0.047366     -0.177006
  O       0.983465     -0.086607      2.139148
  H       1.725239     -0.686983      2.003070
  H       0.347578     -0.595112      2.657577
  O       1.184630      2.537879      0.750642
  H       0.430001      3.115782      0.904962
  H       1.258346      1.986475      1.540696
  O      -2.081397      0.342810      1.762662
  H      -1.695210      0.911421      2.438754
  H      -2.062606     -0.551291      2.126494
  O      -0.795684     -2.209102      0.784669
  H       0.025622     -2.565277      1.146804
  H      -0.959288     -2.715105     -0.023273
  O       2.141992      1.291229     -1.554146
  H       1.931107      1.895125     -0.818225
  H       1.732150      1.698022     -2.325263
  O      -2.957867      0.405955     -1.096784
  H      -2.916984      1.317916     -1.408303
  H      -3.232727      0.489028     -0.175618
  O      -1.071976     -1.635586     -2.025521
  H      -0.430449     -1.660237     -2.745271
  H      -1.826963     -1.131102     -2.356217
  O       1.830657     -1.384296     -0.680824
  H       2.250342     -0.715149     -1.243451
  H       1.533125     -2.089155     -1.268544
25
Coordinates from ORCA-job pb_aquo8 E -803.834980825920
  Pb     -0.293794      0.038400     -0.177137
  O       0.989108     -0.083635      2.138641
  H       1.727005     -0.691205      2.004493
  H       0.349416     -0.588649      2.657469
  O       1.258419      2.545062      0.744010
  H       0.515075      3.138960      0.891036
  H       1.288166      1.965245      1.518639
  O      -2.121683      0.348995      1.738605
  H      -1.722338      0.931827      2.395127
  H      -2.100844     -0.533539      2.126503
  O      -0.793716     -2.211603      0.789012
  H       0.034002     -2.548713      1.152748
  H      -0.943075     -2.723619     -0.018175
  O       2.221017      1.289508     -1.531179
  H       1.970961      1.854630     -0.773142
  H       1.839310      1.727267     -2.299181
  O      -3.016482      0.344587     -1.081209
  H      -3.045009      1.249144     -1.414243
  H      -3.269524      0.428846     -0.153653
  O      -1.086935     -1.624208     -2.021479
  H      -0.463129     -1.636880     -2.756932
  H      -1.860426     -1.136231     -2.333780
  O       1.825554     -1.357700     -0.696212
  H       2.238007     -0.662881     -1.236292
  H       1.544291     -2.049604     -1.306636
25
Coordinates from ORCA-job pb_aquo8 E -803.835434330193
  Pb     -0.330488      0.025088     -0.174211
  O       1.001200     -0.077576      2.139744
  H       1.736611     -0.689790      2.003536
  H       0.361756     -0.577844      2.664352
  O       1.337770      2.550481      0.740381
  H       0.601643      3.155165      0.879072
  H       1.321770      1.945921      1.497957
  O      -2.176156      0.346020      1.716708
  H      -1.762385      0.940483      2.354399
  H      -2.151130     -0.523367      2.131562
  O      -0.796836     -2.218686      0.796491
  H       0.039234     -2.533815      1.159986
  H      -0.931802     -2.735126     -0.010707
  O       2.304545      1.286202     -1.516941
  H       2.021836      1.816113     -0.743021
  H       1.946393      1.747161     -2.281864
  O      -3.067707      0.288483     -1.068458
  H      -3.164614      1.179413     -1.423151
  H      -3.302085      0.372695     -0.135095
  O      -1.105175     -1.614791     -2.020773
  H      -0.499812     -1.607195     -2.771512
  H      -1.897458     -1.143193     -2.310584
  O       1.819787     -1.322150     -0.706724
  H       2.221387     -0.597880     -1.222168
  H       1.555092     -1.997807     -1.341946
25
Coordinates from ORCA-job pb_aquo8 E -803.836030708814
  Pb     -0.364715      0.007948     -0.167682
  O       1.019305     -0.068114      2.141687
  H       1.753966     -0.680802      1.998905
  H       0.385772     -0.562790      2.678529
  O       1.410856      2.554347      0.742499
  H       0.674213      3.160721      0.871566
  H       1.355904      1.933627      1.484442
  O      -2.241776      0.329053      1.704689
  H      -1.817325      0.930071      2.330120
  H      -2.212360     -0.528040      2.145336
  O      -0.807063     -2.232079      0.806468
  H       0.037782     -2.525947      1.168746
  H      -0.930444     -2.751044     -0.001090
  O       2.383645      1.281366     -1.521764
  H       2.083805      1.788261     -0.740676
  H       2.037147      1.751014     -2.285947
  O      -3.097473      0.249859     -1.061507
  H      -3.248844      1.124275     -1.435755
  H      -3.322621      0.331308     -0.124604
  O      -1.123532     -1.610543     -2.023919
  H      -0.534965     -1.576086     -2.787160
  H      -1.931850     -1.152956     -2.289640
  O       1.811317     -1.278777     -0.708365
  H       2.199870     -0.524335     -1.199656
  H       1.562764     -1.936331     -1.368189
25
Coordinates from ORCA-job pb_aquo8 E -803.836684481850
  Pb     -0.402142     -0.001399     -0.167770
  O       1.020284     -0.053965      2.136954
  H       1.750984     -0.671478      1.994963
  H       0.383382     -0.541022      2.676235
  O       1.497140      2.550108      0.743068
  H       0.753352      3.151713      0.852760
  H       1.397675      1.912812      1.466205
  O      -2.298288      0.313163      1.703042
  H      -1.871575      0.927895      2.313893
  H      -2.268185     -0.530869      2.170130
  O      -0.818163     -2.234799      0.807684
  H       0.032208     -2.505105      1.176063
  H      -0.928053     -2.760890      0.003274
  O       2.474070      1.276879     -1.521456
  H       2.155722      1.761137     -0.732683
  H       2.126109      1.752427     -2.281073
  O      -3.125383      0.191099     -1.045667
  H      -3.315636      1.051180     -1.434324
  H      -3.339926      0.273666     -0.105492
  O      -1.138160     -1.605948     -2.025785
  H      -0.558717     -1.549511     -2.794764
  H      -1.961748     -1.166519     -2.277123
  O       1.789729     -1.223845     -0.718677
  H       2.174622     -0.441925     -1.178833
  H       1.554076     -1.860796     -1.403594
25
Coordinates from ORCA-job pb_aquo8 E -803.837376788782
  Pb     -0.422845     -0.006014     -0.168942
  O       1.007019     -0.033107      2.125419
  H       1.733935     -0.650949      1.985334
  H       0.366349     -0.510110      2.667808
  O       1.545833      2.535173      0.752258
  H       0.777546      3.111239      0.829869
  H       1.423155      1.896461      1.464354
  O      -2.329964      0.283973      1.732790
  H      -1.922494      0.909229      2.345555
  H      -2.307464     -0.554831      2.215683
  O      -0.838910     -2.234036      0.801182
  H       0.011519     -2.492884      1.182935
  H      -0.945551     -2.770031      0.002916
  O       2.538971      1.274430     -1.545268
  H       2.232673      1.765484     -0.761960
  H       2.150168      1.723236     -2.302158
  O      -3.100770      0.160843     -1.033223
  H      -3.269401      1.023858     -1.425324
  H      -3.326933      0.243756     -0.095068
  O      -1.139827     -1.615220     -2.031436
  H      -0.551023     -1.540088     -2.791885
  H      -1.967195     -1.187319     -2.286600
  O       1.752837     -1.164545     -0.720578
  H       2.143141     -0.370612     -1.163293
  H       1.522607     -1.783934     -1.423334
25
Coordinates from ORCA-job pb_aquo8 E -803.835986541291
  Pb     -0.549982      0.038494     -0.221079
  O       0.892271      0.034186      2.068950
  H       1.584273     -0.636115      1.986802
  H       0.182576     -0.411805      2.547303
  O       1.837510      2.446068      0.743284
  H       1.046471      2.996375      0.689303
  H       1.545683      1.751426      1.373909
  O      -2.375444      0.294828      1.759752
  H      -2.023913      1.007608      2.307508
  H      -2.370587     -0.492132      2.310823
  O      -0.846611     -2.159616      0.736204
  H      -0.012062     -2.353442      1.179261
  H      -0.889619     -2.749280     -0.030447
  O       2.806861      1.240159     -1.452848
  H       2.398047      1.661128     -0.640130
  H       2.351080      1.718028     -2.155883
  O      -3.198923     -0.137818     -0.914343
  H      -3.418330      0.712926     -1.313921
  H      -3.370505     -0.009255      0.035386
  O      -1.150609     -1.588970     -2.021530
  H      -0.559222     -1.496517     -2.777824
  H      -2.023316     -1.242158     -2.293701
  O       1.647938     -0.959548     -0.817010
  H       2.128052     -0.137876     -1.149369
  H       1.451737     -1.512689     -1.593368
25
Coordinates from ORCA-job pb_aquo8 E -803.836660714034
  Pb     -0.520560      0.062214     -0.217393
  O       0.932278      0.033579      2.084403
  H       1.642707     -0.620029      1.984413
  H       0.242217     -0.415345      2.592377
  O       1.751909      2.487721      0.749608
  H       1.020476      3.117030      0.723880
  H       1.552250      1.834128      1.412401
  O      -2.360995      0.278223      1.766813
  H      -2.071184      0.945669      2.399612
  H      -2.366952     -0.552883      2.277347
  O      -0.828886     -2.173870      0.737136
  H      -0.011906     -2.434112      1.180620
  H      -0.909104     -2.764401     -0.024688
  O       2.790271      1.310840     -1.449066
  H       2.482526      1.763248     -0.655588
  H       2.442902      1.787957     -2.214831
  O      -3.246421     -0.021843     -0.934063
  H      -3.464917      0.831736     -1.323557
  H      -3.491829      0.056884     -0.007176
  O      -1.203888     -1.638443     -2.059040
  H      -0.659093     -1.596048     -2.855289
  H      -2.058635     -1.323141     -2.319527
  O       1.701528     -1.053253     -0.790200
  H       2.164179     -0.269777     -1.167600
  H       1.554501     -1.632080     -1.533558
25
Coordinates from ORCA-job pb_aquo8 E -803.838165521110
  Pb     -0.511736      0.051573     -0.213644
  O       0.925548      0.028417      2.089175
  H       1.630059     -0.620025      1.982810
  H       0.239654     -0.420287      2.599981
  O       1.715389      2.508362      0.758840
  H       0.972147      3.120073      0.734348
  H       1.515893      1.841250      1.426975
  O      -2.349798      0.275467      1.790913
  H      -2.042548      0.939660      2.418822
  H      -2.340590     -0.551615      2.293668
  O      -0.836573     -2.188100      0.744700
  H      -0.013200     -2.447341      1.183409
  H      -0.916164     -2.772700     -0.022396
  O       2.785093      1.312741     -1.476817
  H       2.455093      1.764276     -0.676493
  H       2.412532      1.773273     -2.236600
  O      -3.222209      0.004329     -0.946461
  H      -3.415926      0.867121     -1.329249
  H      -3.453681      0.092706     -0.014079
  O      -1.182167     -1.651382     -2.070717
  H      -0.625470     -1.599371     -2.857286
  H      -2.035436     -1.306567     -2.331136
  O       1.693481     -1.070083     -0.788254
  H       2.149829     -0.284934     -1.172723
  H       1.534158     -1.652838     -1.530752
25
Coordinates from ORCA-job pb_aquo8 E -803.839002873167
  Pb     -0.524947      0.046026     -0.213324
  O       0.913172      0.035020      2.089032
  H       1.613757     -0.617483      1.983341
  H       0.228280     -0.409961      2.601588
  O       1.723045      2.506463      0.759340
  H       0.963223      3.093264      0.723133
  H       1.507053      1.834376      1.420128
  O      -2.341727      0.273949      1.792177
  H      -2.024707      0.945854      2.407032
  H      -2.326598     -0.545232      2.300306
  O      -0.843219     -2.191549      0.745092
  H      -0.019121     -2.443281      1.184145
  H      -0.915867     -2.776698     -0.021101
  O       2.797797      1.306085     -1.478036
  H       2.444660      1.751374     -0.677501
  H       2.401667      1.760401     -2.225895
  O      -3.219371     -0.006586     -0.939744
  H      -3.408536      0.857380     -1.322982
  H      -3.440883      0.089132     -0.002367
  O      -1.161759     -1.645263     -2.069899
  H      -0.599324     -1.578446     -2.850244
  H      -2.024873     -1.293008     -2.332045
  O       1.681123     -1.061680     -0.795252
  H       2.141042     -0.271368     -1.173082
  H       1.519492     -1.644764     -1.546808
25
Coordinates from ORCA-job pb_aquo8 E -803.837938770195
  Pb     -0.561942      0.041604     -0.218755
  O       0.860274      0.075988      2.084340
  H       1.550840     -0.596123      1.984197
  H       0.161430     -0.349957      2.597787
  O       1.774132      2.491657      0.770477
  H       0.909644      2.916104      0.663277
  H       1.487228      1.789443      1.402913
  O      -2.308966      0.259356      1.805019
  H      -1.964920      0.959881      2.373063
  H      -2.270749     -0.543410      2.338689
  O      -0.870458     -2.181484      0.735799
  H      -0.042186     -2.398234      1.187362
  H      -0.915066     -2.776088     -0.028439
  O       2.842630      1.284309     -1.475599
  H       2.445738      1.708709     -0.678950
  H       2.326051      1.682992     -2.188137
  O      -3.203951     -0.046942     -0.911295
  H      -3.339855      0.826614     -1.297250
  H      -3.402500      0.071543      0.035282
  O      -1.111751     -1.626460     -2.070615
  H      -0.520942     -1.498504     -2.823217
  H      -1.976294     -1.286219     -2.339426
  O       1.638876     -1.006730     -0.822684
  H       2.115341     -0.212763     -1.175802
  H       1.460771     -1.571282     -1.591004
25
Coordinates from ORCA-job pb_aquo8 E -803.839093193870
  Pb     -0.562221      0.042062     -0.211115
  O       0.890077      0.058616      2.081059
  H       1.579835     -0.595985      1.977547
  H       0.204971     -0.372302      2.601039
  O       1.758896      2.473968      0.755020
  H       1.003557      3.074285      0.653754
  H       1.514455      1.792216      1.385731
  O      -2.341377      0.252531      1.795453
  H      -2.026734      0.948325      2.384247
  H      -2.329872     -0.561016      2.310524
  O      -0.851673     -2.188992      0.738333
  H      -0.029063     -2.427870      1.187906
  H      -0.911325     -2.782129     -0.023219
  O       2.856414      1.286941     -1.453140
  H       2.485461      1.734346     -0.648646
  H       2.436960      1.732748     -2.199937
  O      -3.242876     -0.044048     -0.911543
  H      -3.439179      0.819556     -1.295609
  H      -3.457393      0.060562      0.021346
  O      -1.155108     -1.631025     -2.067010
  H      -0.595452     -1.531851     -2.846277
  H      -2.029924     -1.310309     -2.321484
  O       1.665521     -1.018540     -0.815956
  H       2.142732     -0.215656     -1.161680
  H       1.516697     -1.582425     -1.579310
25
Coordinates from ORCA-job pb_aquo8 E -803.836919381117
  Pb     -0.564835      0.058607     -0.232876
  O       0.889789      0.074134      2.090967
  H       1.592306     -0.613682      1.991043
  H       0.183466     -0.353769      2.605353
  O       1.828851      2.502619      0.772059
  H       1.000369      2.957602      0.687967
  H       1.537023      1.804808      1.409387
  O      -2.354170      0.269991      1.790613
  H      -2.036775      0.957223      2.387906
  H      -2.301685     -0.528425      2.334155
  O      -0.854630     -2.167982      0.733500
  H      -0.035907     -2.390060      1.187946
  H      -0.899886     -2.762898     -0.026334
  O       2.841110      1.293098     -1.458671
  H       2.469391      1.707440     -0.676314
  H       2.400048      1.713600     -2.194359
  O      -3.251444     -0.072995     -0.910166
  H      -3.444345      0.778250     -1.314913
  H      -3.464048      0.026943      0.038191
  O      -1.145622     -1.625924     -2.088639
  H      -0.581536     -1.516283     -2.863105
  H      -2.020606     -1.304938     -2.354187
  O       1.658979     -1.004831     -0.810892
  H       2.133479     -0.213407     -1.160069
  H       1.504055     -1.575112     -1.581531
25
Coordinates from ORCA-job pb_aquo8 E -803.839816470913
  Pb     -0.567544      0.048752     -0.225889
  O       0.875380      0.066655      2.081938
  H       1.561243     -0.603785      1.979943
  H       0.180461     -0.356516      2.599959
  O       1.783808      2.495405      0.770769
  H       0.975731      3.014546      0.661483
  H       1.513692      1.799589      1.394217
  O      -2.328182      0.260696      1.804700
  H      -2.009194      0.956954      2.391741
  H      -2.286700     -0.546320      2.333021
  O      -0.856929     -2.181322      0.735362
  H      -0.035782     -2.411779      1.192820
  H      -0.905841     -2.778058     -0.025803
  O       2.845764      1.284643     -1.455239
  H       2.443979      1.708269     -0.655716
  H       2.409040      1.717194     -2.198224
  O      -3.229669     -0.051634     -0.907438
  H      -3.416688      0.808332     -1.301285
  H      -3.437609      0.056002      0.033947
  O      -1.126739     -1.624205     -2.079823
  H      -0.560048     -1.514206     -2.852865
  H      -1.999320     -1.306054     -2.340962
  O       1.642334     -1.019570     -0.822200
  H       2.123608     -0.223850     -1.168685
  H       1.488580     -1.585729     -1.588738
25
Coordinates from ORCA-job pb_aquo8 E -803.838525879009
  Pb     -0.554833      0.058399     -0.218087
  O       0.882376      0.084193      2.077485
  H       1.572457     -0.581326      1.970295
  H       0.201406     -0.338396      2.613412
  O       1.726535      2.481790      0.750241
  H       0.959213      3.031677      0.595448
  H       1.495903      1.793472      1.406798
  O      -2.303818      0.243224      1.810694
  H      -2.003640      0.942288      2.401975
  H      -2.278830     -0.575619      2.312483
  O      -0.857659     -2.178193      0.731519
  H      -0.043499     -2.417915      1.184637
  H      -0.921765     -2.773083     -0.023788
  O       2.832553      1.304554     -1.420512
  H       2.474274      1.729640     -0.627129
  H       2.370395      1.688352     -2.170629
  O      -3.236977     -0.036650     -0.900713
  H      -3.357452      0.848029     -1.269120
  H      -3.485369      0.062945      0.021471
  O      -1.146267     -1.625929     -2.086446
  H      -0.559419     -1.491961     -2.839907
  H      -2.023225     -1.313003     -2.370248
  O       1.679670     -1.039442     -0.829447
  H       2.148330     -0.265358     -1.187581
  H       1.513015     -1.617684     -1.575817
25
Coordinates from ORCA-job pb_aquo8 E -803.839838405381
  Pb     -0.563855      0.053177     -0.219177
  O       0.874595      0.084030      2.077377
  H       1.561060     -0.584490      1.971398
  H       0.189544     -0.334401      2.612079
  O       1.745790      2.483584      0.756956
  H       0.956967      3.009684      0.604829
  H       1.498474      1.792738      1.393148
  O      -2.306882      0.243440      1.810600
  H      -1.999948      0.943998      2.397214
  H      -2.273867     -0.571929      2.321319
  O      -0.860826     -2.179496      0.733030
  H      -0.044838     -2.415766      1.189619
  H      -0.918028     -2.776409     -0.023673
  O       2.846923      1.294944     -1.429609
  H       2.473146      1.724552     -0.633558
  H       2.385523      1.692203     -2.174712
  O      -3.236098     -0.041422     -0.898540
  H      -3.378337      0.835331     -1.276311
  H      -3.471384      0.062991      0.030276
  O      -1.133669     -1.622011     -2.085200
  H      -0.554414     -1.487999     -2.844808
  H      -2.010530     -1.313726     -2.359631
  O       1.662684     -1.030969     -0.829500
  H       2.140054     -0.243421     -1.180861
  H       1.501293     -1.604625     -1.585233
25
Coordinates from ORCA-job pb_aquo8 E -803.838932010525
  Pb     -0.591003      0.043590     -0.227123
  O       0.865600      0.089817      2.081776
  H       1.547051     -0.590990      1.976812
  H       0.175320     -0.317595      2.620138
  O       1.816557      2.506379      0.786644
  H       0.964223      2.949232      0.635069
  H       1.524307      1.801939      1.375631
  O      -2.342180      0.238263      1.820197
  H      -2.035035      0.931889      2.417043
  H      -2.274732     -0.566962      2.356857
  O      -0.869325     -2.188425      0.733564
  H      -0.050645     -2.421007      1.202727
  H      -0.905238     -2.792604     -0.025839
  O       2.885618      1.267142     -1.470338
  H       2.477619      1.717091     -0.678652
  H       2.435901      1.686423     -2.214965
  O      -3.233656     -0.042362     -0.896797
  H      -3.441404      0.806182     -1.304250
  H      -3.449027      0.066599      0.047504
  O      -1.110410     -1.619877     -2.100529
  H      -0.562894     -1.481751     -2.883136
  H      -1.988726     -1.327722     -2.345940
  O       1.625327     -0.999081     -0.813802
  H       2.121002     -0.186347     -1.140597
  H       1.499128     -1.555819     -1.594964
25
Coordinates from ORCA-job pb_aquo8 E -803.837296961675
  Pb     -0.592214      0.049616     -0.216549
  O       0.886025      0.098726      2.071955
  H       1.566670     -0.570696      1.957627
  H       0.214254     -0.309398      2.629486
  O       1.767239      2.480424      0.743066
  H       1.026002      3.044956      0.544613
  H       1.507741      1.773855      1.376796
  O      -2.335282      0.222278      1.807382
  H      -2.037864      0.936115      2.382255
  H      -2.297849     -0.586446      2.312885
  O      -0.856988     -2.184614      0.731510
  H      -0.047479     -2.413336      1.189017
  H      -0.907365     -2.781349     -0.018158
  O       2.884264      1.286129     -1.395017
  H       2.523901      1.700458     -0.608159
  H       2.438393      1.674895     -2.150169
  O      -3.272082     -0.064562     -0.877137
  H      -3.452451      0.803699     -1.259937
  H      -3.519187      0.035924      0.038928
  O      -1.143120     -1.606049     -2.092698
  H      -0.581892     -1.443148     -2.860056
  H      -2.048396     -1.328349     -2.355782
  O       1.672972     -1.008644     -0.835893
  H       2.154922     -0.224023     -1.160703
  H       1.533164     -1.572456     -1.598232
25
Coordinates from ORCA-job pb_aquo8 E -803.837659102291
  Pb     -0.587589      0.051956     -0.218952
  O       0.884017      0.094677      2.070724
  H       1.560496     -0.574767      1.955525
  H       0.210464     -0.310603      2.628465
  O       1.757439      2.481765      0.747374
  H       1.031786      3.068076      0.549123
  H       1.505282      1.776843      1.376309
  O      -2.327059      0.226159      1.813084
  H      -2.031239      0.937637      2.391455
  H      -2.284070     -0.586727      2.315668
  O      -0.856048     -2.183215      0.732063
  H      -0.046842     -2.416402      1.191887
  H      -0.907687     -2.780997     -0.018920
  O       2.884034      1.293699     -1.390128
  H       2.508937      1.712802     -0.602953
  H       2.454487      1.689960     -2.151427
  O      -3.276851     -0.060286     -0.879351
  H      -3.457823      0.807579     -1.261662
  H      -3.521736      0.042071      0.039145
  O      -1.143753     -1.612404     -2.099538
  H      -0.584293     -1.456003     -2.869562
  H      -2.044095     -1.335702     -2.361302
  O       1.670580     -1.023373     -0.837020
  H       2.153838     -0.239796     -1.166527
  H       1.531100     -1.588944     -1.596447
25
Coordinates from ORCA-job pb_aquo8 E -803.839240063576
  Pb     -0.586168      0.048367     -0.232173
  O       0.870234      0.098449      2.065816
  H       1.539090     -0.590132      1.952436
  H       0.191574     -0.292623      2.634120
  O       1.766937      2.470082      0.763238
  H       1.033240      3.039159      0.560881
  H       1.498064      1.763944      1.370778
  O      -2.302277      0.238159      1.809193
  H      -1.995716      0.953451      2.378612
  H      -2.239957     -0.578332      2.326636
  O      -0.868961     -2.178977      0.733851
  H      -0.059366     -2.401333      1.202605
  H      -0.914557     -2.783030     -0.020351
  O       2.866147      1.293405     -1.382218
  H       2.440232      1.729939     -0.613327
  H       2.435960      1.693106     -2.141561
  O      -3.258363     -0.072537     -0.879449
  H      -3.428822      0.787529     -1.276489
  H      -3.502604      0.039911      0.058355
  O      -1.119078     -1.601843     -2.101485
  H      -0.551165     -1.433493     -2.862858
  H      -2.016200     -1.332691     -2.367060
  O       1.648329     -1.028617     -0.839428
  H       2.140299     -0.242615     -1.174012
  H       1.496505     -1.605273     -1.609077
25
Coordinates from ORCA-job pb_aquo8 E -803.840336570881
  Pb     -0.585670      0.048362     -0.231779
  O       0.866649      0.099633      2.068042
  H       1.538163     -0.591163      1.957044
  H       0.185751     -0.291429      2.629982
  O       1.778392      2.473535      0.767213
  H       1.002864      3.007760      0.575147
  H       1.499915      1.765550      1.372049
  O      -2.302807      0.238343      1.811243
  H      -1.994850      0.949296      2.385627
  H      -2.238218     -0.571262      2.331232
  O      -0.871206     -2.177687      0.733862
  H      -0.058938     -2.401016      1.204299
  H      -0.914869     -2.781517     -0.020346
  O       2.867841      1.289514     -1.395703
  H       2.444145      1.727974     -0.623723
  H       2.429475      1.688093     -2.154936
  O      -3.249562     -0.068658     -0.880363
  H      -3.420962      0.791875     -1.280516
  H      -3.487056      0.041490      0.054867
  O      -1.117132     -1.603468     -2.102853
  H      -0.550307     -1.436813     -2.865447
  H      -2.009490     -1.332005     -2.367400
  O       1.642934     -1.024149     -0.835973
  H       2.135961     -0.232206     -1.169884
  H       1.492354     -1.596049     -1.604649
25
Coordinates from ORCA-job pb_aquo8 E -803.840623364739
  Pb     -0.586542      0.048729     -0.232564
  O       0.866076      0.101461      2.066986
  H       1.533561     -0.588434      1.955905
  H       0.185668     -0.285848      2.630244
  O       1.783834      2.477977      0.773461
  H       0.992211      2.997471      0.586523
  H       1.502729      1.769380      1.372037
  O      -2.306240      0.236294      1.817752
  H      -2.001339      0.942815      2.399012
  H      -2.235176     -0.572311      2.338621
  O      -0.873204     -2.178609      0.734804
  H      -0.059142     -2.404007      1.208311
  H      -0.914448     -2.783440     -0.019216
  O       2.872640      1.290306     -1.403252
  H       2.443066      1.732158     -0.628532
  H       2.444983      1.689310     -2.170115
  O      -3.245531     -0.062772     -0.881451
  H      -3.421382      0.796120     -1.283609
  H      -3.480420      0.046996      0.051240
  O      -1.119393     -1.608538     -2.110867
  H      -0.557525     -1.441874     -2.877262
  H      -2.007071     -1.340567     -2.370923
  O       1.638719     -1.025901     -0.833718
  H       2.133548     -0.230265     -1.166567
  H       1.493755     -1.592446     -1.599786
25
Coordinates from ORCA-job pb_aquo8 E -803.840652928032
  Pb     -0.590426      0.047878     -0.231771
  O       0.865154      0.103494      2.067670
  H       1.534160     -0.584375      1.958197
  H       0.182922     -0.286906      2.629051
  O       1.794528      2.486566      0.775263
  H       0.981613      2.964136      0.594889
  H       1.506626      1.775592      1.373477
  O      -2.315585      0.234786      1.819145
  H      -2.011616      0.940003      2.402903
  H      -2.242659     -0.573039      2.344447
  O      -0.872548     -2.178365      0.733360
  H      -0.060297     -2.402593      1.204785
  H      -0.910534     -2.783284     -0.019828
  O       2.873669      1.281557     -1.417337
  H       2.458602      1.723056     -0.640844
  H       2.438397      1.675037     -2.180054
  O      -3.240511     -0.062461     -0.881589
  H      -3.419541      0.794902     -1.283652
  H      -3.475000      0.047872      0.051372
  O      -1.115284     -1.607594     -2.109177
  H      -0.554746     -1.440457     -2.876587
  H      -2.006125     -1.335779     -2.369470
  O       1.636740     -1.012973     -0.829622
  H       2.130214     -0.216167     -1.158092
  H       1.495623     -1.576882     -1.599503
25
Coordinates from ORCA-job pb_aquo8 E -803.840781180684
  Pb     -0.585336      0.052882     -0.238516
  O       0.861335      0.101818      2.060677
  H       1.521026     -0.591485      1.948760
  H       0.178328     -0.277030      2.630220
  O       1.780486      2.495876      0.781112
  H       0.977300      2.989476      0.599041
  H       1.498147      1.780362      1.372378
  O      -2.299501      0.239880      1.832300
  H      -2.000487      0.941688      2.422931
  H      -2.207686     -0.571899      2.349187
  O      -0.870953     -2.171216      0.733196
  H      -0.064877     -2.401425      1.208135
  H      -0.908391     -2.778687     -0.019202
  O       2.872531      1.290247     -1.400444
  H       2.443458      1.736402     -0.629537
  H       2.473770      1.686245     -2.180132
  O      -3.250298     -0.061386     -0.878683
  H      -3.432598      0.795253     -1.280972
  H      -3.485332      0.051681      0.054688
  O      -1.111993     -1.612813     -2.127844
  H      -0.555294     -1.446934     -2.898273
  H      -2.005068     -1.348145     -2.389463
  O       1.633094     -1.036090     -0.831231
  H       2.128811     -0.245684     -1.163774
  H       1.492906     -1.605010     -1.597522
25
Coordinates from ORCA-job pb_aquo8 E -803.840888925868
  Pb     -0.594856      0.048779     -0.238433
  O       0.869044      0.104345      2.060640
  H       1.525531     -0.592260      1.946236
  H       0.194630     -0.270424      2.638546
  O       1.789694      2.493538      0.783819
  H       0.990927      3.001987      0.590116
  H       1.505339      1.778426      1.368910
  O      -2.315417      0.233226      1.829018
  H      -2.015664      0.938634      2.414726
  H      -2.221532     -0.574990      2.346885
  O      -0.874388     -2.180375      0.735136
  H      -0.063243     -2.404924      1.212194
  H      -0.906336     -2.788503     -0.017148
  O       2.878761      1.282950     -1.399171
  H       2.445124      1.732582     -0.632787
  H       2.482874      1.681550     -2.181670
  O      -3.250623     -0.063841     -0.876630
  H      -3.445123      0.788903     -1.283549
  H      -3.487275      0.051382      0.055497
  O      -1.114211     -1.607631     -2.128798
  H      -0.562819     -1.429427     -2.900096
  H      -2.009477     -1.351154     -2.381603
  O       1.632970     -1.030083     -0.830148
  H       2.131087     -0.233884     -1.155187
  H       1.498359     -1.594801     -1.599472
25
Coordinates from ORCA-job pb_aquo8 E -803.841021647802
  Pb     -0.595606      0.051403     -0.242172
  O       0.864483      0.106280      2.055996
  H       1.516223     -0.595626      1.942004
  H       0.189535     -0.262627      2.636572
  O       1.789748      2.497344      0.788201
  H       0.982135      2.986869      0.585509
  H       1.501320      1.775865      1.367886
  O      -2.308983      0.235085      1.833494
  H      -2.008862      0.943689      2.414848
  H      -2.207118     -0.573143      2.348699
  O      -0.875466     -2.176364      0.732438
  H      -0.064435     -2.397716      1.212446
  H      -0.903488     -2.785967     -0.018731
  O       2.877462      1.279535     -1.391888
  H       2.441547      1.733395     -0.630739
  H       2.479718      1.672993     -2.176363
  O      -3.249037     -0.069315     -0.871823
  H      -3.438499      0.784636     -1.279087
  H      -3.485520      0.050075      0.059334
  O      -1.110380     -1.605529     -2.133007
  H      -0.556333     -1.421006     -2.900919
  H      -2.005526     -1.352802     -2.387483
  O       1.629336     -1.030842     -0.832050
  H       2.128901     -0.237223     -1.155466
  H       1.492223     -1.595004     -1.600669
25
Coordinates from ORCA-job pb_aquo8 E -803.841176150506
  Pb     -0.601156      0.051556     -0.245346
  O       0.863915      0.110076      2.049075
  H       1.509434     -0.598251      1.933468
  H       0.190811     -0.248378      2.640359
  O       1.795441      2.505776      0.793722
  H       0.985058      2.978149      0.579433
  H       1.500732      1.774723      1.363209
  O      -2.311526      0.232807      1.835679
  H      -2.012506      0.944736      2.413438
  H      -2.196967     -0.576255      2.349530
  O      -0.876995     -2.173723      0.730083
  H      -0.068127     -2.390925      1.213145
  H      -0.898999     -2.785155     -0.018781
  O       2.884109      1.272329     -1.383490
  H       2.448625      1.730765     -0.629033
  H       2.496787      1.663211     -2.173262
  O      -3.252562     -0.076917     -0.863426
  H      -3.453205      0.771382     -1.276242
  H      -3.490936      0.045066      0.066050
  O      -1.107997     -1.600138     -2.139147
  H      -0.559563     -1.405203     -2.908699
  H      -2.008943     -1.357741     -2.390357
  O       1.625761     -1.028209     -0.831055
  H       2.128657     -0.235463     -1.147777
  H       1.493531     -1.590214     -1.603542
25
Coordinates from ORCA-job pb_aquo8 E -803.841315851227
  Pb     -0.606573      0.052510     -0.250488
  O       0.861170      0.113231      2.040464
  H       1.498480     -0.602618      1.923931
  H       0.191005     -0.233247      2.642463
  O       1.797553      2.512106      0.800667
  H       0.986102      2.977136      0.572602
  H       1.498243      1.773406      1.359732
  O      -2.309665      0.231463      1.840186
  H      -2.012783      0.946379      2.415227
  H      -2.181933     -0.576488      2.351345
  O      -0.879864     -2.171652      0.726918
  H      -0.072735     -2.384851      1.214565
  H      -0.895837     -2.786006     -0.019771
  O       2.889461      1.265941     -1.372995
  H       2.450260      1.730630     -0.625666
  H       2.513062      1.654984     -2.169189
  O      -3.252656     -0.084779     -0.854656
  H      -3.459265      0.759535     -1.273035
  H      -3.493112      0.040920      0.073509
  O      -1.105423     -1.596339     -2.146446
  H      -0.561037     -1.391297     -2.916342
  H      -2.009597     -1.364524     -2.395232
  O       1.619694     -1.028205     -0.831560
  H       2.127330     -0.236588     -1.143053
  H       1.491498     -1.587642     -1.606144
25
Coordinates from ORCA-job pb_aquo8 E -803.841497700798
  Pb     -0.614758      0.053208     -0.257260
  O       0.860284      0.118010      2.026845
  H       1.485142     -0.608327      1.908677
  H       0.197048     -0.209694      2.646637
  O       1.801477      2.520335      0.809660
  H       0.992062      2.980754      0.562562
  H       1.496972      1.772390      1.353371
  O      -2.311025      0.228606      1.844981
  H      -2.016767      0.947228      2.416734
  H      -2.164496     -0.577662      2.352886
  O      -0.884937     -2.170323      0.722988
  H      -0.080130     -2.376748      1.216653
  H      -0.892431     -2.788508     -0.020437
  O       2.900458      1.257863     -1.356438
  H       2.456599      1.731990     -0.618367
  H       2.542456      1.646656     -2.161348
  O      -3.255379     -0.096663     -0.841942
  H      -3.473705      0.740057     -1.269668
  H      -3.499239      0.033759      0.084507
  O      -1.105294     -1.591555     -2.157434
  H      -0.569006     -1.371631     -2.929030
  H      -2.014660     -1.375639     -2.400711
  O       1.613068     -1.028662     -0.831928
  H       2.128061     -0.237590     -1.135185
  H       1.491579     -1.583848     -1.609721
25
Coordinates from ORCA-job pb_aquo8 E -803.841705996790
  Pb     -0.626827      0.055877     -0.268088
  O       0.857691      0.125399      2.004393
  H       1.464282     -0.616003      1.885430
  H       0.204932     -0.174359      2.648814
  O       1.808290      2.531177      0.821915
  H       1.002262      2.983469      0.548182
  H       1.495945      1.770935      1.343431
  O      -2.312113      0.225396      1.852560
  H      -2.023075      0.948931      2.420698
  H      -2.140074     -0.578066      2.356448
  O      -0.893298     -2.166775      0.715446
  H      -0.092275     -2.363454      1.218807
  H      -0.889049     -2.791092     -0.022761
  O       2.919871      1.247105     -1.330797
  H       2.472662      1.735811     -0.604485
  H       2.587039      1.636556     -2.146200
  O      -3.259722     -0.116961     -0.822385
  H      -3.493283      0.708724     -1.263368
  H      -3.508101      0.020119      0.101981
  O      -1.107664     -1.586729     -2.173243
  H      -0.583241     -1.348463     -2.947616
  H      -2.023932     -1.393709     -2.409330
  O       1.602711     -1.026583     -0.833132
  H       2.129546     -0.237356     -1.123590
  H       1.490797     -1.575944     -1.616079
25
Coordinates from ORCA-job pb_aquo8 E -803.841929461851
  Pb     -0.644675      0.059683     -0.282903
  O       0.854503      0.135680      1.972107
  H       1.435960     -0.625808      1.853108
  H       0.218489     -0.125457      2.649292
  O       1.820897      2.542868      0.836991
  H       1.020586      2.982299      0.527927
  H       1.496877      1.767368      1.327836
  O      -2.316171      0.221060      1.862218
  H      -2.033012      0.951872      2.423962
  H      -2.111015     -0.577486      2.362006
  O      -0.906301     -2.161426      0.704769
  H      -0.110083     -2.343537      1.221064
  H      -0.885401     -2.793884     -0.026312
  O       2.950041      1.232612     -1.294884
  H       2.504005      1.744385     -0.583610
  H       2.648407      1.623940     -2.121342
  O      -3.268250     -0.148652     -0.795767
  H      -3.523230      0.661091     -1.253893
  H      -3.520326     -0.001572      0.126576
  O      -1.112951     -1.581255     -2.194182
  H      -0.605399     -1.319231     -2.972153
  H      -2.037822     -1.419232     -2.419909
  O       1.588113     -1.019138     -0.834845
  H       2.131701     -0.232297     -1.105360
  H       1.488432     -1.559877     -1.625662
25
Coordinates from ORCA-job pb_aquo8 E -803.842057247929
  Pb     -0.658386      0.060993     -0.293621
  O       0.852165      0.141606      1.946811
  H       1.415359     -0.633797      1.828259
  H       0.231551     -0.090760      2.648287
  O       1.828458      2.550077      0.846517
  H       1.035984      2.987158      0.514750
  H       1.496308      1.765258      1.316905
  O      -2.319445      0.217655      1.869383
  H      -2.037983      0.952791      2.426546
  H      -2.090301     -0.576370      2.367545
  O      -0.918748     -2.158627      0.696579
  H      -0.126065     -2.330995      1.221657
  H      -0.885608     -2.796430     -0.029724
  O       2.974374      1.220993     -1.270492
  H       2.535418      1.754133     -0.569216
  H       2.695145      1.615525     -2.103284
  O      -3.276410     -0.172891     -0.777412
  H      -3.547339      0.624372     -1.247789
  H      -3.527917     -0.016990      0.144914
  O      -1.116104     -1.579579     -2.208869
  H      -0.621897     -1.301710     -2.989859
  H      -2.046275     -1.438302     -2.426628
  O       1.575246     -1.010453     -0.833995
  H       2.131504     -0.225493     -1.088287
  H       1.484342     -1.544159     -1.631944
25
Coordinates from ORCA-job pb_aquo8 E -803.842128976551
  Pb     -0.668006      0.062145     -0.299098
  O       0.855552      0.143983      1.930796
  H       1.408269     -0.638047      1.812691
  H       0.245298     -0.071545      2.646279
  O       1.836579      2.549457      0.845622
  H       1.055623      2.994234      0.500617
  H       1.500929      1.761555      1.304479
  O      -2.324736      0.217232      1.870713
  H      -2.041181      0.957062      2.420383
  H      -2.084587     -0.573979      2.368349
  O      -0.925973     -2.157202      0.692305
  H      -0.134475     -2.323936      1.222086
  H      -0.886103     -2.796921     -0.032081
  O       2.994790      1.216809     -1.247365
  H       2.563736      1.764192     -0.550539
  H       2.733387      1.618579     -2.082259
  O      -3.295417     -0.193577     -0.766099
  H      -3.583024      0.594040     -1.242130
  H      -3.541977     -0.031374      0.157185
  O      -1.122134     -1.577647     -2.217379
  H      -0.638238     -1.291324     -3.001631
  H      -2.055746     -1.450764     -2.427975
  O       1.570982     -1.004743     -0.834685
  H       2.135257     -0.221079     -1.076001
  H       1.484571     -1.533147     -1.637229
25
Coordinates from ORCA-job pb_aquo8 E -803.842209192018
  Pb     -0.677176      0.064883     -0.305061
  O       0.850616      0.144432      1.920652
  H       1.397899     -0.641941      1.805983
  H       0.239964     -0.063340      2.637903
  O       1.847466      2.547958      0.843514
  H       1.066828      2.990088      0.493925
  H       1.504088      1.757894      1.296622
  O      -2.324679      0.219011      1.875813
  H      -2.041892      0.961281      2.422659
  H      -2.078640     -0.567741      2.377700
  O      -0.931985     -2.151476      0.685769
  H      -0.143535     -2.317277      1.220572
  H      -0.887407     -2.793012     -0.037146
  O       3.011204      1.209804     -1.238919
  H       2.597467      1.767523     -0.540374
  H       2.755689      1.616644     -2.073127
  O      -3.305231     -0.213579     -0.757321
  H      -3.601413      0.568900     -1.236668
  H      -3.543414     -0.047207      0.167876
  O      -1.121677     -1.578271     -2.221783
  H      -0.642107     -1.292268     -3.008750
  H      -2.057066     -1.458762     -2.431739
  O       1.559542     -0.990457     -0.834531
  H       2.132249     -0.206316     -1.064233
  H       1.476588     -1.512765     -1.642305
25
Coordinates from ORCA-job pb_aquo8 E -803.842244979530
  Pb     -0.694910      0.070009     -0.315319
  O       0.851141      0.152217      1.893367
  H       1.388188     -0.642632      1.784251
  H       0.253420     -0.033302      2.626136
  O       1.870866      2.552644      0.846944
  H       1.093735      2.993170      0.481481
  H       1.514596      1.758457      1.289369
  O      -2.328829      0.217874      1.882921
  H      -2.048227      0.962996      2.427461
  H      -2.075251     -0.563189      2.391814
  O      -0.949026     -2.149348      0.673704
  H      -0.167691     -2.315733      1.217931
  H      -0.898298     -2.793658     -0.045355
  O       3.050014      1.202082     -1.219479
  H       2.624861      1.761506     -0.522927
  H       2.811576      1.618845     -2.054249
  O      -3.325667     -0.245224     -0.741046
  H      -3.639301      0.525760     -1.228065
  H      -3.552276     -0.070468      0.185515
  O      -1.124689     -1.582280     -2.233357
  H      -0.659486     -1.291933     -3.027252
  H      -2.063855     -1.481152     -2.436298
  O       1.546020     -0.966717     -0.832778
  H       2.129176     -0.190519     -1.038462
  H       1.477291     -1.475400     -1.649272
25
Coordinates from ORCA-job pb_aquo8 E -803.842296489999
  Pb     -0.688142      0.071750     -0.310370
  O       0.853894      0.146275      1.899898
  H       1.400753     -0.641802      1.793677
  H       0.250385     -0.051818      2.624622
  O       1.855943      2.551251      0.836501
  H       1.066095      2.975492      0.482139
  H       1.508612      1.767274      1.291961
  O      -2.318271      0.222828      1.882804
  H      -2.030911      0.966950      2.425111
  H      -2.079881     -0.563192      2.392182
  O      -0.951825     -2.152833      0.675285
  H      -0.170631     -2.331086      1.215421
  H      -0.910528     -2.792056     -0.048383
  O       3.040233      1.206466     -1.229006
  H       2.633742      1.774308     -0.528379
  H       2.788751      1.623990     -2.059678
  O      -3.329528     -0.238184     -0.748050
  H      -3.627093      0.544543     -1.226087
  H      -3.547938     -0.060534      0.179165
  O      -1.114821     -1.584784     -2.225093
  H      -0.638171     -1.300653     -3.014605
  H      -2.049940     -1.468868     -2.434967
  O       1.547540     -0.971917     -0.830172
  H       2.126111     -0.197169     -1.042999
  H       1.468997     -1.482223     -1.643944
25
Coordinates from ORCA-job pb_aquo8 E -803.842379165580
  Pb     -0.690528      0.074561     -0.310173
  O       0.853726      0.143251      1.898816
  H       1.402520     -0.643659      1.795816
  H       0.243468     -0.056643      2.618481
  O       1.863885      2.544740      0.831156
  H       1.086193      2.990541      0.480241
  H       1.512074      1.763895      1.294085
  O      -2.315149      0.227590      1.880342
  H      -2.024492      0.974324      2.416942
  H      -2.084450     -0.554966      2.394745
  O      -0.954822     -2.148032      0.673284
  H      -0.175394     -2.329555      1.214295
  H      -0.915480     -2.785869     -0.052648
  O       3.046193      1.209432     -1.224985
  H       2.636543      1.765663     -0.521081
  H       2.795467      1.635663     -2.051047
  O      -3.342341     -0.254551     -0.745200
  H      -3.641459      0.528903     -1.221076
  H      -3.549416     -0.074199      0.183445
  O      -1.113238     -1.585794     -2.222651
  H      -0.633825     -1.306133     -3.012231
  H      -2.047771     -1.469432     -2.435399
  O       1.543681     -0.968746     -0.834230
  H       2.126423     -0.191943     -1.044161
  H       1.461567     -1.475037     -1.649732
25
Coordinates from ORCA-job pb_aquo8 E -803.842430575982
  Pb     -0.695674      0.076205     -0.312612
  O       0.853664      0.146403      1.885263
  H       1.397570     -0.644621      1.783935
  H       0.251967     -0.040355      2.616131
  O       1.864712      2.549589      0.835203
  H       1.089674      2.993086      0.474201
  H       1.509731      1.766201      1.293790
  O      -2.312234      0.227208      1.881649
  H      -2.020365      0.975987      2.414703
  H      -2.076550     -0.554141      2.396494
  O      -0.963642     -2.146300      0.668260
  H      -0.186527     -2.328378      1.213292
  H      -0.922105     -2.784816     -0.057061
  O       3.058043      1.205203     -1.213251
  H       2.647229      1.763762     -0.512640
  H       2.818662      1.633588     -2.041813
  O      -3.350256     -0.267675     -0.735522
  H      -3.653841      0.511656     -1.215482
  H      -3.553500     -0.081431      0.192597
  O      -1.113009     -1.585944     -2.227895
  H      -0.638679     -1.300398     -3.018416
  H      -2.048960     -1.477721     -2.438399
  O       1.539028     -0.964989     -0.833984
  H       2.127264     -0.191131     -1.038306
  H       1.461178     -1.466984     -1.653102
25
Coordinates from ORCA-job pb_aquo8 E -803.842492852466
  Pb     -0.701444      0.080156     -0.313248
  O       0.853606      0.150632      1.863950
  H       1.393584     -0.643653      1.767610
  H       0.266551     -0.016998      2.611788
  O       1.859175      2.557910      0.843473
  H       1.085939      2.993318      0.467294
  H       1.501268      1.774992      1.300740
  O      -2.301398      0.229199      1.883018
  H      -2.005506      0.981093      2.409331
  H      -2.064953     -0.550575      2.399475
  O      -0.980981     -2.144454      0.659793
  H      -0.208604     -2.332697      1.209652
  H      -0.940008     -2.781609     -0.066777
  O       3.071824      1.200019     -1.197457
  H       2.654050      1.758969     -0.503210
  H       2.848001      1.630120     -2.029711
  O      -3.361592     -0.288512     -0.720067
  H      -3.660964      0.489905     -1.204589
  H      -3.556509     -0.090136      0.206648
  O      -1.108189     -1.587819     -2.233913
  H      -0.636570     -1.292538     -3.022415
  H      -2.045008     -1.487740     -2.444437
  O       1.533207     -0.963087     -0.835324
  H       2.129401     -0.194294     -1.035402
  H       1.458496     -1.458197     -1.659190
25
Coordinates from ORCA-job pb_aquo8 E -803.842506167508
  Pb     -0.704951      0.082206     -0.313432
  O       0.853622      0.150329      1.854396
  H       1.393441     -0.644631      1.762121
  H       0.274057     -0.010006      2.608992
  O       1.854695      2.562917      0.844954
  H       1.082393      2.996658      0.464521
  H       1.495198      1.781283      1.304501
  O      -2.297034      0.232854      1.884151
  H      -1.997051      0.986188      2.406280
  H      -2.060695     -0.545125      2.403668
  O      -0.990498     -2.144613      0.654712
  H      -0.220322     -2.337144      1.205406
  H      -0.949838     -2.779260     -0.073502
  O       3.077424      1.195578     -1.190545
  H       2.660347      1.756153     -0.497113
  H       2.862221      1.627077     -2.024238
  O      -3.367742     -0.301133     -0.712056
  H      -3.663271      0.477386     -1.198830
  H      -3.555029     -0.094689      0.214667
  O      -1.105136     -1.589724     -2.236680
  H      -0.633436     -1.289794     -3.023318
  H      -2.042106     -1.490884     -2.447445
  O       1.530904     -0.961244     -0.837055
  H       2.130624     -0.194250     -1.033708
  H       1.455558     -1.452126     -1.663414
25
Coordinates from ORCA-job pb_aquo8 E -803.842525548406
  Pb     -0.711189      0.087170     -0.315003
  O       0.852373      0.151938      1.841854
  H       1.390730     -0.644571      1.755442
  H       0.280956      0.002595      2.604564
  O       1.857187      2.565320      0.847778
  H       1.086704      2.991509      0.456785
  H       1.494565      1.784147      1.303930
  O      -2.294644      0.239083      1.885210
  H      -1.994984      0.996363      2.401576
  H      -2.057649     -0.535469      2.407640
  O      -0.998122     -2.141199      0.647444
  H      -0.230710     -2.335950      1.201229
  H      -0.955720     -2.774432     -0.081814
  O       3.085792      1.192161     -1.173053
  H       2.663661      1.754284     -0.483969
  H       2.885230      1.624404     -2.009727
  O      -3.375472     -0.321253     -0.698250
  H      -3.670838      0.454374     -1.189781
  H      -3.557784     -0.107356      0.227285
  O      -1.107415     -1.589397     -2.242037
  H      -0.637634     -1.283315     -3.027330
  H      -2.045433     -1.498311     -2.452250
  O       1.530822     -0.959120     -0.843699
  H       2.136455     -0.193674     -1.034390
  H       1.456495     -1.445297     -1.672402
25
Coordinates from ORCA-job pb_aquo8 E -803.842531207309
  Pb     -0.712092      0.089047     -0.314022
  O       0.848069      0.147947      1.839961
  H       1.390791     -0.646027      1.759232
  H       0.279030     -0.001023      2.603933
  O       1.850798      2.567389      0.847863
  H       1.076279      2.987832      0.458610
  H       1.488280      1.789193      1.306381
  O      -2.291783      0.246681      1.888757
  H      -1.991041      1.004127      2.404601
  H      -2.055321     -0.525683      2.415350
  O      -1.003014     -2.140014      0.642341
  H      -0.236724     -2.339329      1.195252
  H      -0.960517     -2.769685     -0.089804
  O       3.080835      1.186591     -1.172305
  H       2.664611      1.756522     -0.484236
  H       2.883881      1.615881     -2.011212
  O      -3.370019     -0.328738     -0.692672
  H      -3.655091      0.448806     -1.187268
  H      -3.548128     -0.110142      0.232727
  O      -1.104132     -1.591453     -2.243039
  H      -0.629426     -1.282828     -3.024327
  H      -2.041017     -1.496381     -2.457027
  O       1.530472     -0.958719     -0.847546
  H       2.137247     -0.193129     -1.037528
  H       1.451388     -1.442857     -1.676991
25
Coordinates from ORCA-job pb_aquo8 E -803.842557429625
  Pb     -0.712346      0.088925     -0.313931
  O       0.847476      0.145900      1.840820
  H       1.391757     -0.646956      1.760972
  H       0.277953     -0.003749      2.604384
  O       1.852150      2.566217      0.846770
  H       1.083030      2.997452      0.459027
  H       1.489255      1.787681      1.305550
  O      -2.293958      0.248801      1.888770
  H      -1.993891      1.006669      2.404397
  H      -2.057888     -0.523005      2.416693
  O      -1.002076     -2.139349      0.641516
  H      -0.235542     -2.338864      1.194193
  H      -0.959211     -2.768051     -0.091358
  O       3.080546      1.186423     -1.171222
  H       2.661311      1.754395     -0.483235
  H       2.886818      1.617098     -2.010137
  O      -3.369482     -0.331462     -0.691641
  H      -3.656903      0.444386     -1.187322
  H      -3.547133     -0.112657      0.234047
  O      -1.105422     -1.591336     -2.243077
  H      -0.630846     -1.283455     -3.024743
  H      -2.042183     -1.496479     -2.457055
  O       1.530931     -0.958813     -0.849318
  H       2.137499     -0.193199     -1.038023
  H       1.451531     -1.442567     -1.679045
25
Coordinates from ORCA-job pb_aquo8 E -803.842583753117
  Pb     -0.713536      0.089565     -0.314317
  O       0.844714      0.142157      1.841450
  H       1.393072     -0.648408      1.764820
  H       0.274305     -0.007170      2.604921
  O       1.858952      2.564911      0.844392
  H       1.092378      3.001347      0.457907
  H       1.493910      1.783300      1.299508
  O      -2.300634      0.254890      1.890084
  H      -2.003717      1.014667      2.404649
  H      -2.064189     -0.515357      2.421093
  O      -0.999200     -2.136107      0.638483
  H      -0.232252     -2.335368      1.191519
  H      -0.954264     -2.762633     -0.096091
  O       3.083245      1.185291     -1.166473
  H       2.660652      1.751988     -0.479620
  H       2.896174      1.617775     -2.005932
  O      -3.367742     -0.340177     -0.686691
  H      -3.664323      0.429517     -1.186093
  H      -3.544960     -0.120311      0.239174
  O      -1.109143     -1.589170     -2.244483
  H      -0.636156     -1.282331     -3.027561
  H      -2.045974     -1.496957     -2.457815
  O       1.531245     -0.957015     -0.853908
  H       2.138467     -0.191267     -1.037224
  H       1.452351     -1.439131     -1.684758
25
Coordinates from ORCA-job pb_aquo8 E -803.842617657518
  Pb     -0.716109      0.090734     -0.314780
  O       0.838843      0.136731      1.836643
  H       1.392223     -0.651095      1.766732
  H       0.273602     -0.006237      2.606005
  O       1.862204      2.564007      0.845722
  H       1.101863      3.009720      0.457252
  H       1.494951      1.780311      1.293873
  O      -2.305854      0.264212      1.894581
  H      -2.013359      1.026847      2.407377
  H      -2.068141     -0.503120      2.429768
  O      -1.001955     -2.132518      0.631776
  H      -0.236093     -2.333943      1.186249
  H      -0.954246     -2.755497     -0.106383
  O       3.087672      1.181067     -1.159357
  H       2.662078      1.754020     -0.479337
  H       2.912868      1.614557     -2.001088
  O      -3.362181     -0.356727     -0.675612
  H      -3.665287      0.405779     -1.181961
  H      -3.538700     -0.130777      0.249462
  O      -1.109496     -1.587758     -2.248109
  H      -0.637304     -1.278468     -3.030753
  H      -2.046306     -1.499123     -2.462699
  O       1.526462     -0.955307     -0.859494
  H       2.137483     -0.190402     -1.035846
  H       1.448159     -1.433008     -1.692988
25
Coordinates from ORCA-job pb_aquo8 E -803.842656679309
  Pb     -0.717256      0.092107     -0.313839
  O       0.833614      0.131046      1.833201
  H       1.395604     -0.651568      1.771521
  H       0.273051     -0.007579      2.606804
  O       1.864348      2.564954      0.846030
  H       1.102764      3.008717      0.457651
  H       1.495174      1.778788      1.288921
  O      -2.310352      0.275160      1.897929
  H      -2.021401      1.040808      2.408055
  H      -2.075272     -0.489453      2.438350
  O      -1.004098     -2.130250      0.625493
  H      -0.239080     -2.335889      1.179983
  H      -0.955536     -2.747873     -0.117394
  O       3.093362      1.177846     -1.154419
  H       2.663984      1.753827     -0.479537
  H       2.928977      1.612389     -1.997760
  O      -3.357295     -0.372531     -0.664822
  H      -3.668354      0.383081     -1.176680
  H      -3.531638     -0.139028      0.259287
  O      -1.108619     -1.585248     -2.250554
  H      -0.636685     -1.274667     -3.032857
  H      -2.045149     -1.498392     -2.466292
  O       1.522358     -0.954371     -0.865339
  H       2.136205     -0.190640     -1.034742
  H       1.444667     -1.427226     -1.701958
25
Coordinates from ORCA-job pb_aquo8 E -803.842676275546
  Pb     -0.719093      0.093352     -0.313678
  O       0.829843      0.128046      1.827327
  H       1.398165     -0.650632      1.773382
  H       0.276528     -0.003565      2.607138
  O       1.864072      2.565969      0.847784
  H       1.101547      3.006224      0.456898
  H       1.493371      1.777958      1.285294
  O      -2.311879      0.283429      1.900419
  H      -2.025336      1.052301      2.406910
  H      -2.078384     -0.478254      2.445290
  O      -1.008619     -2.130395      0.620315
  H      -0.244680     -2.339375      1.174809
  H      -0.959677     -2.743629     -0.126532
  O       3.101973      1.174976     -1.148774
  H       2.670782      1.755338     -0.479153
  H       2.947597      1.610316     -1.993589
  O      -3.355475     -0.387876     -0.654085
  H      -3.674363      0.361640     -1.170376
  H      -3.527803     -0.145717      0.268462
  O      -1.106600     -1.582764     -2.254143
  H      -0.635889     -1.269150     -3.035981
  H      -2.043415     -1.498771     -2.470350
  O       1.516130     -0.953448     -0.869107
  H       2.133974     -0.191321     -1.031936
  H       1.440607     -1.420646     -1.709293
25
Coordinates from ORCA-job pb_aquo8 E -803.842692408463
  Pb     -0.719092      0.093846     -0.313482
  O       0.828202      0.127863      1.826405
  H       1.401079     -0.647494      1.776766
  H       0.277964     -0.001262      2.608432
  O       1.861974      2.565446      0.849279
  H       1.098227      3.003016      0.457585
  H       1.491210      1.776412      1.284643
  O      -2.311121      0.287153      1.900209
  H      -2.026122      1.057890      2.404679
  H      -2.079042     -0.472820      2.447626
  O      -1.009427     -2.132493      0.619255
  H      -0.245049     -2.342157      1.172315
  H      -0.961142     -2.743411     -0.129524
  O       3.106131      1.174179     -1.147429
  H       2.672785      1.754862     -0.479721
  H       2.954903      1.608953     -1.993088
  O      -3.354104     -0.393342     -0.649967
  H      -3.678115      0.353174     -1.167657
  H      -3.527098     -0.147446      0.271383
  O      -1.105745     -1.580053     -2.255911
  H      -0.635445     -1.264832     -3.037342
  H      -2.042600     -1.497130     -2.472252
  O       1.513169     -0.954224     -0.870768
  H       2.132459     -0.193430     -1.031538
  H       1.439375     -1.418697     -1.712867
25
Coordinates from ORCA-job pb_aquo8 E -803.842705993743
  Pb     -0.721881      0.094892     -0.315352
  O       0.825678      0.128979      1.823930
  H       1.403537     -0.642958      1.781417
  H       0.279959      0.005188      2.609504
  O       1.861240      2.562184      0.850830
  H       1.098622      2.999050      0.455862
  H       1.488950      1.771722      1.282354
  O      -2.310497      0.292163      1.899461
  H      -2.027999      1.066838      2.399323
  H      -2.077402     -0.463176      2.452142
  O      -1.010891     -2.135552      0.617258
  H      -0.245160     -2.343238      1.168550
  H      -0.961653     -2.744096     -0.133319
  O       3.114479      1.171343     -1.141858
  H       2.681506      1.754204     -0.476308
  H       2.968325      1.605216     -1.988810
  O      -3.354494     -0.405172     -0.642275
  H      -3.687670      0.335209     -1.163219
  H      -3.528061     -0.153909      0.277286
  O      -1.106889     -1.575596     -2.260463
  H      -0.638125     -1.256433     -3.041204
  H      -2.044435     -1.496381     -2.476387
  O       1.508041     -0.952338     -0.873799
  H       2.130931     -0.192844     -1.028893
  H       1.437265     -1.411289     -1.718995
25
Coordinates from ORCA-job pb_aquo8 E -803.842732964206
  Pb     -0.723820      0.095489     -0.318008
  O       0.822473      0.131719      1.826075
  H       1.406984     -0.635150      1.791154
  H       0.278652      0.011122      2.613204
  O       1.858589      2.556211      0.853305
  H       1.097577      2.993614      0.455643
  H       1.485432      1.763933      1.281535
  O      -2.308651      0.296758      1.897301
  H      -2.029798      1.075992      2.392198
  H      -2.072804     -0.452924      2.455878
  O      -1.008195     -2.139979      0.617488
  H      -0.238470     -2.341945      1.164739
  H      -0.957431     -2.746671     -0.134150
  O       3.119781      1.168008     -1.137570
  H       2.685505      1.751078     -0.473267
  H       2.975106      1.598385     -1.986508
  O      -3.352476     -0.413228     -0.636831
  H      -3.695485      0.320318     -1.161224
  H      -3.529954     -0.159426      0.280651
  O      -1.110430     -1.568814     -2.265999
  H      -0.642290     -1.245110     -3.045221
  H      -2.048218     -1.492608     -2.481654
  O       1.504901     -0.952065     -0.877714
  H       2.129809     -0.194400     -1.028593
  H       1.436588     -1.406300     -1.725401
25
Coordinates from ORCA-job pb_aquo8 E -803.842744294664
  Pb     -0.729491      0.096497     -0.323155
  O       0.818714      0.134128      1.824408
  H       1.406876     -0.630361      1.797300
  H       0.277286      0.019555      2.614115
  O       1.860280      2.550311      0.854829
  H       1.103615      2.990474      0.451882
  H       1.484102      1.756467      1.278923
  O      -2.308375      0.301140      1.896825
  H      -2.033449      1.085709      2.385575
  H      -2.066985     -0.441556      2.461948
  O      -1.006972     -2.141330      0.615381
  H      -0.233978     -2.336470      1.160705
  H      -0.952110     -2.747640     -0.136067
  O       3.127595      1.162435     -1.128150
  H       2.695593      1.748071     -0.465303
  H       2.986741      1.590741     -1.978790
  O      -3.353404     -0.426641     -0.628445
  H      -3.705885      0.298536     -1.158125
  H      -3.532460     -0.169724      0.287481
  O      -1.115915     -1.563536     -2.273199
  H      -0.649529     -1.234963     -3.051428
  H      -2.054446     -1.492459     -2.488337
  O       1.500848     -0.947842     -0.882659
  H       2.129752     -0.191357     -1.025685
  H       1.434975     -1.396179     -1.732996
25
Coordinates from ORCA-job pb_aquo8 E -803.842756875614
  Pb     -0.732067      0.096048     -0.326565
  O       0.816706      0.135943      1.827108
  H       1.407468     -0.626367      1.803363
  H       0.274343      0.022839      2.616682
  O       1.860527      2.546685      0.856760
  H       1.106251      2.988859      0.451650
  H       1.483245      1.752408      1.279713
  O      -2.308582      0.302047      1.896604
  H      -2.036216      1.089728      2.381839
  H      -2.062918     -0.437007      2.464935
  O      -1.002673     -2.141752      0.616363
  H      -0.225899     -2.330263      1.158977
  H      -0.944601     -2.748879     -0.133840
  O       3.128655      1.158495     -1.125120
  H       2.695877      1.743861     -0.462553
  H       2.986098      1.584427     -1.976730
  O      -3.352431     -0.429648     -0.626743
  H      -3.708842      0.291152     -1.159561
  H      -3.534362     -0.173572      0.288447
  O      -1.120412     -1.559595     -2.277622
  H      -0.653981     -1.228725     -3.054871
  H      -2.058765     -1.489542     -2.492698
  O       1.500861     -0.947393     -0.885962
  H       2.130207     -0.191887     -1.026224
  H       1.434885     -1.393858     -1.736920
25
Coordinates from ORCA-job pb_aquo8 E -803.842772595727
  Pb     -0.737325      0.096279     -0.331590
  O       0.813864      0.136434      1.823978
  H       1.405814     -0.625355      1.804841
  H       0.273613      0.029091      2.616054
  O       1.862906      2.545672      0.858756
  H       1.111864      2.988976      0.449029
  H       1.483012      1.750968      1.279199
  O      -2.309030      0.304182      1.898313
  H      -2.039654      1.095726      2.378850
  H      -2.059055     -0.430775      2.470122
  O      -1.001370     -2.139683      0.614374
  H      -0.222741     -2.323279      1.156490
  H      -0.939168     -2.748014     -0.134467
  O       3.133961      1.153357     -1.116979
  H       2.701490      1.740416     -0.456159
  H       2.994882      1.579384     -1.969213
  O      -3.353694     -0.439203     -0.620336
  H      -3.714468      0.275756     -1.157874
  H      -3.535840     -0.180437      0.294121
  O      -1.124514     -1.557064     -2.283247
  H      -0.659360     -1.224342     -3.060489
  H      -2.063096     -1.489709     -2.498239
  O       1.497999     -0.945130     -0.890488
  H       2.130496     -0.191030     -1.024935
  H       1.432789     -1.388215     -1.743079
25
Coordinates from ORCA-job pb_aquo8 E -803.842782916749
  Pb     -0.742415      0.095034     -0.336911
  O       0.812042      0.136514      1.822691
  H       1.406016     -0.623431      1.807435
  H       0.273316      0.034238      2.616518
  O       1.864562      2.545728      0.861244
  H       1.115436      2.988942      0.448049
  H       1.482580      1.751922      1.281124
  O      -2.310436      0.304457      1.900303
  H      -2.043628      1.100311      2.374962
  H      -2.056857     -0.427000      2.475515
  O      -0.997675     -2.137501      0.614840
  H      -0.215793     -2.314340      1.155020
  H      -0.931038     -2.747923     -0.131791
  O       3.138599      1.147467     -1.111279
  H       2.705732      1.735137     -0.451170
  H       2.999649      1.574360     -1.963201
  O      -3.355154     -0.445949     -0.616060
  H      -3.719554      0.263623     -1.158079
  H      -3.537730     -0.184357      0.297580
  O      -1.128414     -1.553635     -2.289225
  H      -0.663708     -1.220402     -3.066596
  H      -2.066847     -1.486154     -2.504260
  O       1.495155     -0.945127     -0.895374
  H       2.130113     -0.192564     -1.024872
  H       1.429425     -1.385347     -1.749431
25
Coordinates from ORCA-job pb_aquo8 E -803.842792328428
  Pb     -0.747416      0.094600     -0.342625
  O       0.809392      0.135762      1.818749
  H       1.406555     -0.621965      1.809366
  H       0.273913      0.040278      2.615444
  O       1.864722      2.547103      0.864385
  H       1.116933      2.989263      0.447640
  H       1.480387      1.754379      1.283781
  O      -2.309718      0.306790      1.902102
  H      -2.046224      1.107267      2.370565
  H      -2.054213     -0.420663      2.481366
  O      -0.994878     -2.135305      0.614298
  H      -0.210832     -2.307081      1.153104
  H      -0.925053     -2.747517     -0.130734
  O       3.144075      1.141992     -1.103478
  H       2.708941      1.729595     -0.444867
  H       3.008585      1.570985     -1.954945
  O      -3.355784     -0.455552     -0.608944
  H      -3.724012      0.248360     -1.155753
  H      -3.538127     -0.187943      0.303404
  O      -1.131101     -1.550131     -2.295725
  H      -0.666673     -1.217552     -3.073594
  H      -2.069430     -1.482192     -2.511434
  O       1.490035     -0.946705     -0.901429
  H       2.128744     -0.196489     -1.025986
  H       1.424556     -1.383274     -1.757654
25
Coordinates from ORCA-job pb_aquo8 E -803.842803749301
  Pb     -0.749855      0.092954     -0.345352
  O       0.809424      0.134654      1.817645
  H       1.410614     -0.619474      1.812463
  H       0.276370      0.042768      2.616018
  O       1.863876      2.547288      0.865520
  H       1.115816      2.988970      0.448814
  H       1.478381      1.756605      1.286895
  O      -2.311026      0.307779      1.901880
  H      -2.048598      1.111678      2.364966
  H      -2.055699     -0.416581      2.485308
  O      -0.991559     -2.135680      0.616465
  H      -0.204986     -2.302823      1.152898
  H      -0.920591     -2.748727     -0.127840
  O       3.146724      1.138170     -1.100735
  H       2.710695      1.725015     -0.441347
  H       3.011774      1.569531     -1.951009
  O      -3.355862     -0.460602     -0.605483
  H      -3.727427      0.239401     -1.155132
  H      -3.537420     -0.187482      0.305618
  O      -1.132461     -1.546430     -2.300313
  H      -0.667489     -1.214860     -3.078353
  H      -2.070586     -1.475672     -2.516151
  O       1.486221     -0.949452     -0.905435
  H       2.126735     -0.200004     -1.026905
  H       1.420303     -1.383021     -1.763402
25
Coordinates from ORCA-job pb_aquo8 E -803.842807354236
  Pb     -0.750432      0.092623     -0.347386
  O       0.808719      0.133772      1.815970
  H       1.413677     -0.617604      1.815022
  H       0.277199      0.044646      2.615529
  O       1.862026      2.546676      0.866623
  H       1.113637      2.988437      0.450521
  H       1.475538      1.757428      1.289731
  O      -2.309944      0.310108      1.900734
  H      -2.049237      1.116373      2.360621
  H      -2.055299     -0.411449      2.487703
  O      -0.988307     -2.135922      0.617925
  H      -0.200439     -2.300152      1.153148
  H      -0.917983     -2.749780     -0.125975
  O       3.146379      1.136091     -1.097360
  H       2.708131      1.721280     -0.437596
  H       3.013327      1.569495     -1.946855
  O      -3.353860     -0.464774     -0.601823
  H      -3.727284      0.232349     -1.154027
  H      -3.535320     -0.186547      0.308095
  O      -1.133565     -1.543144     -2.303939
  H      -0.667451     -1.213532     -3.082126
  H      -2.071366     -1.469973     -2.520561
  O       1.483018     -0.953090     -0.909029
  H       2.124999     -0.204680     -1.029505
  H       1.417215     -1.384625     -1.768407
25
Coordinates from ORCA-job pb_aquo8 E -803.842817617426
  Pb     -0.749204      0.091354     -0.347499
  O       0.809965      0.132682      1.816219
  H       1.418964     -0.615424      1.818340
  H       0.278885      0.044177      2.615990
  O       1.860740      2.543857      0.866082
  H       1.111846      2.987738      0.453259
  H       1.473518      1.756841      1.292692
  O      -2.311333      0.311547      1.898254
  H      -2.050917      1.119499      2.355460
  H      -2.057760     -0.407151      2.489356
  O      -0.983912     -2.137299      0.621522
  H      -0.194383     -2.297911      1.155118
  H      -0.915294     -2.751868     -0.122073
  O       3.142598      1.134516     -1.097034
  H       2.703866      1.717975     -0.435231
  H       3.008938      1.570174     -1.945188
  O      -3.351250     -0.466438     -0.600751
  H      -3.725442      0.228499     -1.155259
  H      -3.532006     -0.183541      0.308076
  O      -1.134834     -1.539405     -2.306867
  H      -0.666508     -1.211879     -3.084599
  H      -2.072152     -1.462179     -2.524055
  O       1.481268     -0.957022     -0.911369
  H       2.123090     -0.207971     -1.031648
  H       1.414695     -1.386766     -1.771761
25
Coordinates from ORCA-job pb_aquo8 E -803.842823038978
  Pb     -0.747281      0.090538     -0.347450
  O       0.810957      0.132317      1.816139
  H       1.422445     -0.614051      1.820204
  H       0.279463      0.044028      2.615851
  O       1.860280      2.540417      0.865554
  H       1.111443      2.986966      0.455698
  H       1.472253      1.754849      1.294688
  O      -2.312446      0.312608      1.896020
  H      -2.052737      1.121457      2.352189
  H      -2.058732     -0.403717      2.490049
  O      -0.979357     -2.137883      0.624680
  H      -0.188889     -2.295516      1.157763
  H      -0.912498     -2.753953     -0.117910
  O       3.137042      1.133347     -1.096451
  H       2.698493      1.715623     -0.433061
  H       3.003005      1.570666     -1.943682
  O      -3.348567     -0.466975     -0.600403
  H      -3.722388      0.225981     -1.157597
  H      -3.529141     -0.180756      0.307613
  O      -1.136827     -1.535934     -2.309232
  H      -0.666284     -1.210534     -3.086467
  H      -2.073674     -1.455811     -2.527120
  O       1.480858     -0.960241     -0.912765
  H       2.121946     -0.210297     -1.033530
  H       1.414012     -1.389124     -1.773745
25
Coordinates from ORCA-job pb_aquo8 E -803.842830283890
  Pb     -0.745512      0.089674     -0.346841
  O       0.811918      0.131875      1.816326
  H       1.424715     -0.613652      1.821286
  H       0.279816      0.043187      2.615736
  O       1.860695      2.537590      0.864964
  H       1.112365      2.987439      0.458000
  H       1.471989      1.753117      1.295858
  O      -2.314127      0.313207      1.895102
  H      -2.054551      1.122379      2.350911
  H      -2.059761     -0.401558      2.490894
  O      -0.976374     -2.138018      0.626955
  H      -0.185530     -2.294403      1.159929
  H      -0.910622     -2.755389     -0.114606
  O       3.131818      1.132233     -1.097243
  H       2.694530      1.714664     -0.432963
  H       2.997362      1.570446     -1.943962
  O      -3.347358     -0.467349     -0.600911
  H      -3.719317      0.224486     -1.160632
  H      -3.527120     -0.178677      0.306541
  O      -1.138244     -1.533585     -2.310587
  H      -0.665344     -1.209331     -3.086832
  H      -2.074621     -1.451137     -2.529479
  O       1.481456     -0.962137     -0.913185
  H       2.121165     -0.210699     -1.033926
  H       1.414027     -1.390353     -1.774301
25
Coordinates from ORCA-job pb_aquo8 E -803.842834390281
  Pb     -0.744235      0.088792     -0.346839
  O       0.812318      0.132251      1.815585
  H       1.425585     -0.612953      1.821194
  H       0.279917      0.044092      2.615193
  O       1.861953      2.535544      0.865217
  H       1.114145      2.987731      0.460066
  H       1.472315      1.751249      1.296310
  O      -2.315594      0.313228      1.895012
  H      -2.057145      1.122925      2.350575
  H      -2.059646     -0.400350      2.491668
  O      -0.973260     -2.137613      0.628809
  H      -0.182441     -2.293352      1.162306
  H      -0.908161     -2.757317     -0.110756
  O       3.127977      1.130766     -1.097310
  H       2.691918      1.713840     -0.432884
  H       2.994284      1.569609     -1.943879
  O      -3.347389     -0.468233     -0.600980
  H      -3.718132      0.221429     -1.164015
  H      -3.526714     -0.176871      0.305693
  O      -1.140449     -1.530547     -2.312111
  H      -0.665662     -1.207443     -3.087647
  H      -2.076400     -1.447072     -2.532123
  O       1.482155     -0.963588     -0.913504
  H       2.120629     -0.210896     -1.033558
  H       1.415408     -1.391216     -1.774987
25
Coordinates from ORCA-job pb_aquo8 E -803.842844636586
  Pb     -0.743147      0.087456     -0.346901
  O       0.812107      0.132072      1.814275
  H       1.426773     -0.612098      1.821890
  H       0.280174      0.045159      2.614470
  O       1.863360      2.534026      0.866179
  H       1.116366      2.989822      0.463676
  H       1.472418      1.749975      1.296956
  O      -2.317166      0.314138      1.895945
  H      -2.060427      1.125122      2.350176
  H      -2.059392     -0.397673      2.493932
  O      -0.970377     -2.137168      0.630503
  H      -0.179935     -2.293725      1.164533
  H      -0.906108     -2.759759     -0.106554
  O       3.124263      1.128365     -1.097754
  H       2.689961      1.713326     -0.434067
  H       2.993008      1.567794     -1.944453
  O      -3.348316     -0.472063     -0.599769
  H      -3.716596      0.214521     -1.168026
  H      -3.526170     -0.174910      0.305329
  O      -1.142788     -1.526358     -2.314249
  H      -0.664605     -1.204344     -3.088136
  H      -2.077946     -1.440889     -2.536873
  O       1.482351     -0.965822     -0.914618
  H       2.119288     -0.211382     -1.032547
  H       1.416280     -1.391578     -1.776887
25
Coordinates from ORCA-job pb_aquo8 E -803.842853467568
  Pb     -0.742795      0.085522     -0.347517
  O       0.811270      0.132588      1.812225
  H       1.427503     -0.610066      1.822454
  H       0.280705      0.048263      2.613710
  O       1.865596      2.533776      0.868397
  H       1.119099      2.992381      0.468151
  H       1.473053      1.749162      1.297197
  O      -2.318556      0.314565      1.897210
  H      -2.064890      1.127759      2.349069
  H      -2.058437     -0.395317      2.496318
  O      -0.967269     -2.136972      0.632411
  H      -0.177594     -2.294927      1.167327
  H      -0.904193     -2.763867     -0.100968
  O       3.122588      1.125707     -1.097752
  H       2.689622      1.712831     -0.435388
  H       2.995459      1.565611     -1.944856
  O      -3.350296     -0.477944     -0.597146
  H      -3.716927      0.203834     -1.172139
  H      -3.526786     -0.172382      0.305373
  O      -1.146191     -1.520469     -2.317034
  H      -0.664348     -1.199848     -3.089233
  H      -2.080317     -1.433149     -2.543125
  O       1.481828     -0.968666     -0.916374
  H       2.117403     -0.212693     -1.031097
  H       1.417849     -1.391692     -1.780180
25
Coordinates from ORCA-job pb_aquo8 E -803.842860514673
  Pb     -0.743449      0.083517     -0.348124
  O       0.810017      0.132827      1.810715
  H       1.428097     -0.608103      1.823863
  H       0.281334      0.051150      2.613505
  O       1.867722      2.534964      0.870856
  H       1.121493      2.995861      0.472553
  H       1.473904      1.749664      1.297148
  O      -2.319339      0.315070      1.898266
  H      -2.068533      1.130817      2.346935
  H      -2.057424     -0.392840      2.498635
  O      -0.966079     -2.137465      0.633716
  H      -0.177360     -2.297211      1.169339
  H      -0.904721     -2.768053     -0.096586
  O       3.123003      1.123888     -1.097836
  H       2.691057      1.713094     -0.436861
  H       2.999963      1.563836     -1.945490
  O      -3.352022     -0.485338     -0.593382
  H      -3.716939      0.192194     -1.174523
  H      -3.526947     -0.170344      0.306188
  O      -1.148874     -1.515538     -2.319594
  H      -0.663249     -1.195803     -3.089830
  H      -2.081873     -1.425644     -2.549629
  O       1.480415     -0.971325     -0.918599
  H       2.115209     -0.214305     -1.030073
  H       1.417971     -1.390909     -1.784155
25
Coordinates from ORCA-job pb_aquo8 E -803.842867864479
  Pb     -0.744861      0.081641     -0.348638
  O       0.808973      0.133710      1.810670
  H       1.427943     -0.606162      1.825288
  H       0.281543      0.053797      2.614227
  O       1.870113      2.536892      0.873009
  H       1.123770      2.998509      0.475556
  H       1.475621      1.750532      1.296562
  O      -2.319933      0.314302      1.898457
  H      -2.071321      1.132165      2.344335
  H      -2.056374     -0.392162      2.499576
  O      -0.966213     -2.138498      0.634849
  H      -0.178155     -2.298718      1.171037
  H      -0.906781     -2.772081     -0.093012
  O       3.125004      1.123519     -1.098068
  H       2.693568      1.713605     -0.437604
  H       3.003503      1.562773     -1.946245
  O      -3.352755     -0.490935     -0.590203
  H      -3.716837      0.183594     -1.175482
  H      -3.526951     -0.168802      0.306853
  O      -1.151129     -1.512530     -2.321526
  H      -0.662799     -1.193139     -3.090249
  H      -2.083152     -1.420188     -2.554601
  O       1.479193     -0.972754     -0.920330
  H       2.113794     -0.215542     -1.029994
  H       1.417611     -1.389522     -1.787433
25
Coordinates from ORCA-job pb_aquo8 E -803.842872638312
  Pb     -0.747177      0.079589     -0.349146
  O       0.808014      0.134320      1.811137
  H       1.427644     -0.604912      1.827022
  H       0.281909      0.056037      2.615488
  O       1.873455      2.538794      0.874715
  H       1.127521      3.001783      0.477948
  H       1.478239      1.751409      1.295283
  O      -2.321423      0.313688      1.898181
  H      -2.074447      1.133704      2.340955
  H      -2.055711     -0.390572      2.500725
  O      -0.967639     -2.139749      0.635619
  H      -0.180050     -2.299340      1.172327
  H      -0.910358     -2.775725     -0.090337
  O       3.127584      1.123545     -1.097634
  H       2.697074      1.714431     -0.437278
  H       3.006669      1.561958     -1.946267
  O      -3.352445     -0.497505     -0.586119
  H      -3.716181      0.173888     -1.175365
  H      -3.525736     -0.168266      0.308514
  O      -1.153222     -1.510995     -2.324015
  H      -0.662327     -1.191387     -3.091079
  H      -2.084299     -1.415432     -2.559858
  O       1.477721     -0.973011     -0.922363
  H       2.112683     -0.215880     -1.030329
  H       1.415877     -1.386366     -1.791092
25
Coordinates from ORCA-job pb_aquo8 E -803.842876573647
  Pb     -0.748812      0.077617     -0.349142
  O       0.807989      0.135379      1.812712
  H       1.426781     -0.604484      1.827618
  H       0.281656      0.057000      2.616875
  O       1.877317      2.540361      0.875472
  H       1.131609      3.004760      0.479922
  H       1.481779      1.752026      1.293744
  O      -2.323422      0.312011      1.897539
  H      -2.077035      1.133069      2.338747
  H      -2.055069     -0.390882      2.500581
  O      -0.968907     -2.140614      0.637001
  H      -0.181588     -2.298920      1.174343
  H      -0.914203     -2.779015     -0.086970
  O       3.128671      1.124511     -1.098043
  H       2.699459      1.715294     -0.436621
  H       3.005934      1.562302     -1.946712
  O      -3.352045     -0.500838     -0.583973
  H      -3.715619      0.168380     -1.175863
  H      -3.524497     -0.167187      0.309023
  O      -1.154823     -1.510869     -2.326004
  H      -0.661662     -1.191738     -3.091850
  H      -2.084937     -1.411546     -2.563760
  O       1.477710     -0.972757     -0.923216
  H       2.112528     -0.215839     -1.031442
  H       1.414564     -1.384019     -1.792947
25
Coordinates from ORCA-job pb_aquo8 E -803.842879105754
  Pb     -0.750899      0.075919     -0.349886
  O       0.807681      0.135781      1.812544
  H       1.426279     -0.604452      1.828021
  H       0.282105      0.058524      2.617393
  O       1.881094      2.540315      0.876091
  H       1.136709      3.007340      0.481244
  H       1.484445      1.751477      1.292227
  O      -2.326266      0.312328      1.897503
  H      -2.080807      1.134845      2.336600
  H      -2.054778     -0.387762      2.502354
  O      -0.969705     -2.140986      0.637681
  H      -0.182194     -2.297371      1.175287
  H      -0.916455     -2.781168     -0.084754
  O       3.129595      1.123754     -1.096326
  H       2.701822      1.715094     -0.434581
  H       3.006679      1.561633     -1.944936
  O      -3.351185     -0.506142     -0.580176
  H      -3.716215      0.158938     -1.175803
  H      -3.522847     -0.167718      0.311352
  O      -1.156298     -1.510428     -2.329368
  H      -0.661259     -1.191389     -3.094050
  H      -2.085807     -1.407903     -2.568381
  O       1.476921     -0.971688     -0.925095
  H       2.112351     -0.214856     -1.031945
  H       1.412410     -1.380083     -1.795964
25
Coordinates from ORCA-job pb_aquo8 E -803.842880094156
  Pb     -0.750543      0.075198     -0.349419
  O       0.808467      0.136826      1.813415
  H       1.425149     -0.605015      1.826454
  H       0.281277      0.057694      2.617214
  O       1.883127      2.540209      0.875615
  H       1.138750      3.008352      0.482194
  H       1.486471      1.751154      1.291416
  O      -2.327717      0.311412      1.897796
  H      -2.081934      1.133312      2.337938
  H      -2.054528     -0.388956      2.501847
  O      -0.969754     -2.140743      0.638965
  H      -0.182228     -2.297041      1.176822
  H      -0.918379     -2.782419     -0.082161
  O       3.128266      1.124434     -1.097442
  H       2.701447      1.715064     -0.434405
  H       3.002792      1.562700     -1.945527
  O      -3.351455     -0.504812     -0.580694
  H      -3.717251      0.159189     -1.176961
  H      -3.522621     -0.166535      0.310715
  O      -1.155778     -1.511042     -2.330054
  H      -0.659320     -1.193540     -3.094434
  H      -2.084754     -1.405921     -2.569313
  O       1.478436     -0.971229     -0.924567
  H       2.113219     -0.214398     -1.033129
  H       1.412238     -1.379889     -1.795249
25
Coordinates from ORCA-job pb_aquo8 E -803.842881613546
  Pb     -0.750634      0.074598     -0.349579
  O       0.808505      0.137098      1.812517
  H       1.424812     -0.605199      1.825526
  H       0.281349      0.057732      2.616396
  O       1.884061      2.539264      0.875718
  H       1.140404      3.009176      0.483149
  H       1.486771      1.750394      1.291185
  O      -2.329104      0.312781      1.898770
  H      -2.083771      1.135001      2.338617
  H      -2.054604     -0.386599      2.503345
  O      -0.969627     -2.140564      0.639544
  H      -0.181739     -2.297121      1.176903
  H      -0.919316     -2.783082     -0.080854
  O       3.127753      1.123492     -1.096963
  H       2.701433      1.714277     -0.433899
  H       3.002316      1.562428     -1.944747
  O      -3.351369     -0.506562     -0.578888
  H      -3.719088      0.154535     -1.177104
  H      -3.522315     -0.166423      0.311998
  O      -1.154995     -1.510514     -2.331900
  H      -0.657069     -1.193894     -3.095665
  H      -2.083626     -1.403133     -2.571512
  O       1.478593     -0.970983     -0.925473
  H       2.113492     -0.214027     -1.033684
  H       1.411142     -1.378670     -1.796367
25
Coordinates from ORCA-job pb_aquo8 E -803.842887951675
  Pb     -0.750478      0.073960     -0.349899
  O       0.808313      0.138195      1.810897
  H       1.423972     -0.604657      1.823608
  H       0.281091      0.058287      2.614766
  O       1.884642      2.538140      0.876112
  H       1.141380      3.009024      0.484016
  H       1.486587      1.749241      1.290999
  O      -2.330310      0.314725      1.900340
  H      -2.086348      1.137338      2.340175
  H      -2.054769     -0.384099      2.505058
  O      -0.968984     -2.140451      0.640451
  H      -0.180451     -2.298105      1.176680
  H      -0.920500     -2.784302     -0.078840
  O       3.128381      1.122362     -1.096333
  H       2.701748      1.712780     -0.433274
  H       3.003013      1.562093     -1.943750
  O      -3.351301     -0.508029     -0.576398
  H      -3.723389      0.148446     -1.176898
  H      -3.522935     -0.166090      0.313706
  O      -1.153784     -1.509081     -2.334040
  H      -0.654282     -1.194138     -3.097433
  H      -2.082045     -1.399197     -2.573844
  O       1.478983     -0.970774     -0.926669
  H       2.114265     -0.213936     -1.034543
  H       1.410579     -1.377726     -1.797855
25
Coordinates from ORCA-job pb_aquo8 E -803.842889720164
  Pb     -0.749599      0.073418     -0.349256
  O       0.808306      0.138727      1.810465
  H       1.423632     -0.604470      1.822350
  H       0.280430      0.056841      2.613557
  O       1.883933      2.537634      0.876098
  H       1.140542      3.009254      0.485096
  H       1.485778      1.749282      1.291538
  O      -2.330540      0.316753      1.901695
  H      -2.087220      1.139267      2.342005
  H      -2.055697     -0.382564      2.506098
  O      -0.969199     -2.140739      0.641421
  H      -0.180020     -2.300878      1.175911
  H      -0.923377     -2.785105     -0.077645
  O       3.128688      1.122469     -1.097574
  H       2.701478      1.712402     -0.434388
  H       3.002558      1.562440     -1.944748
  O      -3.350796     -0.508377     -0.574909
  H      -3.725741      0.145574     -1.176384
  H      -3.523315     -0.165237      0.314524
  O      -1.151645     -1.508404     -2.334856
  H      -0.650130     -1.195024     -3.097563
  H      -2.079317     -1.395252     -2.575368
  O       1.479836     -0.971418     -0.927175
  H       2.114886     -0.214438     -1.035650
  H       1.409906     -1.378148     -1.798210
25
Coordinates from ORCA-job pb_aquo8 E -803.842889854933
  Pb     -0.749656      0.072961     -0.349411
  O       0.807782      0.139621      1.809212
  H       1.422893     -0.603689      1.820874
  H       0.280011      0.057279      2.612354
  O       1.883896      2.537728      0.876439
  H       1.140300      3.008594      0.484811
  H       1.485322      1.749225      1.291570
  O      -2.330391      0.318318      1.902260
  H      -2.088658      1.141199      2.342655
  H      -2.056451     -0.381174      2.506781
  O      -0.969164     -2.141120      0.641763
  H      -0.179499     -2.302882      1.174955
  H      -0.925641     -2.786133     -0.076921
  O       3.131136      1.122675     -1.096812
  H       2.702685      1.711881     -0.433739
  H       3.005380      1.562533     -1.944071
  O      -3.349766     -0.509786     -0.572598
  H      -3.728386      0.140893     -1.175335
  H      -3.523962     -0.165395      0.316094
  O      -1.151801     -1.507227     -2.335721
  H      -0.649804     -1.194862     -3.098531
  H      -2.079260     -1.392983     -2.576576
  O       1.480123     -0.971286     -0.927850
  H       2.115685     -0.214596     -1.035910
  H       1.410602     -1.377769     -1.799261
25
Coordinates from ORCA-job pb_aquo8 E -803.842915287128
  Pb     -0.748761      0.072376     -0.348460
  O       0.807863      0.139883      1.809898
  H       1.422945     -0.603629      1.820436
  H       0.278911      0.055125      2.611833
  O       1.883356      2.538308      0.875935
  H       1.136583      3.004742      0.484964
  H       1.484878      1.750651      1.292367
  O      -2.329475      0.319835      1.902378
  H      -2.087832      1.142451      2.343267
  H      -2.057699     -0.380503      2.506853
  O      -0.969713     -2.141573      0.642769
  H      -0.179212     -2.305571      1.173895
  H      -0.929519     -2.786562     -0.076233
  O       3.131750      1.124076     -1.098385
  H       2.703766      1.713200     -0.434839
  H       3.003668      1.562914     -1.945779
  O      -3.348163     -0.509783     -0.571938
  H      -3.727524      0.140309     -1.174932
  H      -3.523884     -0.164791      0.316147
  O      -1.151309     -1.506847     -2.335647
  H      -0.647732     -1.195259     -3.097762
  H      -2.078136     -1.389819     -2.577708
  O       1.481385     -0.971981     -0.927340
  H       2.116307     -0.214851     -1.036177
  H       1.410926     -1.378693     -1.798506
25
Coordinates from ORCA-job pb_aquo8 E -803.842898608436
  Pb     -0.748870      0.072095     -0.348447
  O       0.807870      0.139710      1.809993
  H       1.422779     -0.603821      1.820243
  H       0.279038      0.054904      2.612030
  O       1.883254      2.538095      0.876129
  H       1.138836      3.008283      0.485164
  H       1.484772      1.750573      1.292747
  O      -2.329433      0.319875      1.902283
  H      -2.087871      1.142515      2.343170
  H      -2.057833     -0.380444      2.506857
  O      -0.969938     -2.141792      0.642893
  H      -0.179308     -2.305890      1.173739
  H      -0.930181     -2.786772     -0.076141
  O       3.131830      1.124294     -1.098404
  H       2.702795      1.713050     -0.435139
  H       3.004239      1.563134     -1.945877
  O      -3.347897     -0.510275     -0.571849
  H      -3.727271      0.139605     -1.175068
  H      -3.523937     -0.165137      0.316138
  O      -1.151645     -1.506956     -2.335764
  H      -0.647983     -1.195225     -3.097767
  H      -2.078404     -1.389889     -2.578037
  O       1.481328     -0.972111     -0.927257
  H       2.116169     -0.215050     -1.036138
  H       1.411037     -1.378765     -1.798465
25
Coordinates from ORCA-job pb_aquo8 E -803.842895980885
  Pb     -0.749010      0.071590     -0.348528
  O       0.807994      0.139447      1.810128
  H       1.422694     -0.604222      1.819886
  H       0.278904      0.054154      2.611986
  O       1.883542      2.538062      0.876032
  H       1.140253      3.009987      0.485034
  H       1.484778      1.751036      1.293471
  O      -2.329053      0.320590      1.901897
  H      -2.087548      1.143335      2.342628
  H      -2.058287     -0.379527      2.507085
  O      -0.969983     -2.141984      0.643364
  H      -0.178725     -2.306277      1.173218
  H      -0.931740     -2.787040     -0.075665
  O       3.131888      1.124735     -1.098046
  H       2.702414      1.713228     -0.434840
  H       3.004093      1.563223     -1.945673
  O      -3.347117     -0.511508     -0.571378
  H      -3.726316      0.137762     -1.175366
  H      -3.523930     -0.165867      0.316288
  O      -1.152872     -1.506709     -2.336244
  H      -0.648722     -1.194912     -3.097906
  H      -2.079405     -1.389114     -2.579175
  O       1.481663     -0.972227     -0.927046
  H       2.116268     -0.214978     -1.035763
  H       1.411594     -1.378778     -1.798354
25
Coordinates from ORCA-job pb_aquo8 E -803.842900276318
  Pb     -0.748643      0.070149     -0.348174
  O       0.808671      0.138671      1.810908
  H       1.422401     -0.605823      1.818327
  H       0.278272      0.050603      2.611684
  O       1.883751      2.538344      0.875432
  H       1.141482      3.012255      0.484943
  H       1.484508      1.753056      1.295762
  O      -2.327622      0.323368      1.901266
  H      -2.085639      1.145848      2.342253
  H      -2.059887     -0.376885      2.507667
  O      -0.970375     -2.142567      0.645105
  H      -0.176972     -2.308563      1.171276
  H      -0.937510     -2.787623     -0.074206
  O       3.131218      1.126266     -1.098281
  H       2.701352      1.714475     -0.435065
  H       3.001616      1.563438     -1.946312
  O      -3.344734     -0.513855     -0.570499
  H      -3.723424      0.134040     -1.176296
  H      -3.524003     -0.167280      0.316278
  O      -1.154953     -1.506146     -2.337335
  H      -0.648667     -1.194439     -3.097641
  H      -2.080621     -1.385977     -2.582323
  O       1.483295     -0.972885     -0.925838
  H       2.116727     -0.214822     -1.034852
  H       1.413136     -1.379644     -1.797047
25
Coordinates from ORCA-job pb_aquo8 E -803.842908126589
  Pb     -0.748386      0.068838     -0.348113
  O       0.809213      0.137953      1.811108
  H       1.422012     -0.607365      1.816524
  H       0.278014      0.047684      2.611170
  O       1.884024      2.538728      0.875133
  H       1.141653      3.012832      0.485116
  H       1.484236      1.754794      1.297560
  O      -2.326323      0.326713      1.901125
  H      -2.083854      1.149082      2.342074
  H      -2.061016     -0.373410      2.508751
  O      -0.970581     -2.142983      0.646754
  H      -0.175028     -2.310620      1.169241
  H      -0.942840     -2.788156     -0.072673
  O       3.130462      1.127069     -1.098013
  H       2.700657      1.715526     -0.435021
  H       2.999696      1.563131     -1.946446
  O      -3.342927     -0.516716     -0.569033
  H      -3.721788      0.129043     -1.177003
  H      -3.524328     -0.168635      0.316697
  O      -1.156255     -1.505080     -2.338963
  H      -0.647750     -1.193451     -3.097827
  H      -2.081119     -1.382580     -2.585863
  O       1.484403     -0.973504     -0.925036
  H       2.116935     -0.214723     -1.033953
  H       1.414267     -1.380167     -1.796274
25
Coordinates from ORCA-job pb_aquo8 E -803.842916458095
  Pb     -0.747968      0.067511     -0.347960
  O       0.809943      0.137023      1.811267
  H       1.421591     -0.609298      1.814198
  H       0.278177      0.044263      2.610676
  O       1.884009      2.539349      0.875025
  H       1.140838      3.012878      0.485893
  H       1.483909      1.756597      1.299226
  O      -2.324910      0.330982      1.901334
  H      -2.081393      1.153055      2.342269
  H      -2.062196     -0.369179      2.510065
  O      -0.970772     -2.143449      0.648673
  H      -0.172719     -2.313176      1.166779
  H      -0.948828     -2.788646     -0.070932
  O       3.128932      1.127500     -1.097995
  H       2.699456      1.716611     -0.435417
  H       2.997396      1.562525     -1.946846
  O      -3.341577     -0.519704     -0.567414
  H      -3.720927      0.123588     -1.177680
  H      -3.525012     -0.169827      0.317086
  O      -1.156376     -1.503636     -2.340841
  H      -0.645243     -1.192032     -3.097943
  H      -2.080368     -1.378815     -2.589744
  O       1.485297     -0.974369     -0.924166
  H       2.116820     -0.214776     -1.033100
  H       1.415295     -1.380971     -1.795420
25
Coordinates from ORCA-job pb_aquo8 E -803.842913521243
  Pb     -0.748116      0.066550     -0.348363
  O       0.810315      0.136171      1.810968
  H       1.421054     -0.610904      1.812119
  H       0.278889      0.042296      2.610456
  O       1.883898      2.540043      0.875588
  H       1.139928      3.012772      0.487036
  H       1.483684      1.757476      1.299959
  O      -2.323715      0.335149      1.901797
  H      -2.079082      1.157228      2.342105
  H      -2.062488     -0.364694      2.511561
  O      -0.970632     -2.143792      0.650172
  H      -0.170315     -2.314678      1.164463
  H      -0.953154     -2.789112     -0.069424
  O       3.127532      1.126969     -1.097132
  H       2.698358      1.717045     -0.435268
  H       2.996684      1.561379     -1.946411
  O      -3.341156     -0.523073     -0.565410
  H      -3.721482      0.117469     -1.177940
  H      -3.525933     -0.170976      0.317865
  O      -1.155837     -1.501845     -2.343081
  H      -0.642741     -1.189865     -3.098681
  H      -2.079272     -1.376135     -2.593489
  O       1.485026     -0.975102     -0.923978
  H       2.116132     -0.215055     -1.032395
  H       1.415800     -1.381314     -1.795484
25
Coordinates from ORCA-job pb_aquo8 E -803.842907666893
  Pb     -0.748837      0.065647     -0.348992
  O       0.810751      0.135050      1.810343
  H       1.420232     -0.613006      1.809119
  H       0.280423      0.040324      2.610384
  O       1.883525      2.541009      0.876739
  H       1.138756      3.013043      0.488873
  H       1.483626      1.757785      1.299994
  O      -2.322290      0.340733      1.902541
  H      -2.075569      1.162776      2.341730
  H      -2.062829     -0.358810      2.513459
  O      -0.970595     -2.144234      0.651788
  H      -0.167414     -2.316378      1.161244
  H      -0.958425     -2.789655     -0.067837
  O       3.125789      1.125879     -1.095697
  H       2.696811      1.717276     -0.434904
  H       2.996967      1.559912     -1.945480
  O      -3.341531     -0.527602     -0.562615
  H      -3.723229      0.109613     -1.177743
  H      -3.527387     -0.172443      0.319091
  O      -1.154151     -1.499622     -2.345916
  H      -0.639080     -1.186686     -3.099743
  H      -2.077126     -1.374177     -2.597942
  O       1.483849     -0.975735     -0.923987
  H       2.114790     -0.215290     -1.031502
  H       1.416320     -1.381405     -1.795915
25
Coordinates from ORCA-job pb_aquo8 E -803.842907561099
  Pb     -0.749866      0.065353     -0.349703
  O       0.810863      0.134227      1.809831
  H       1.419728     -0.614260      1.807057
  H       0.281580      0.039289      2.610464
  O       1.882718      2.541424      0.877988
  H       1.137620      3.013500      0.490769
  H       1.483509      1.756882      1.299383
  O      -2.321153      0.345125      1.903054
  H      -2.072412      1.167216      2.340989
  H      -2.063079     -0.354157      2.514940
  O      -0.970088     -2.144395      0.652829
  H      -0.164666     -2.316902      1.158628
  H      -0.961490     -2.790028     -0.066675
  O       3.124392      1.124687     -1.094231
  H       2.695241      1.716716     -0.434065
  H       2.997675      1.558934     -1.944215
  O      -3.342182     -0.531093     -0.560379
  H      -3.724529      0.103988     -1.177314
  H      -3.528319     -0.173331      0.320207
  O      -1.152523     -1.497885     -2.348006
  H      -0.636463     -1.184140     -3.100788
  H      -2.075340     -1.373809     -2.601157
  O       1.482235     -0.976182     -0.924520
  H       2.113383     -0.215671     -1.031211
  H       1.416542     -1.381481     -1.796841
25
Coordinates from ORCA-job pb_aquo8 E -803.842908430798
  Pb     -0.751321      0.065216     -0.350174
  O       0.811050      0.133620      1.809324
  H       1.419440     -0.615190      1.804734
  H       0.282777      0.038201      2.610519
  O       1.881321      2.541341      0.879331
  H       1.136216      3.014055      0.492869
  H       1.483240      1.755045      1.298383
  O      -2.320070      0.349782      1.903432
  H      -2.068668      1.171818      2.339934
  H      -2.064111     -0.349385      2.516421
  O      -0.969787     -2.144541      0.653836
  H      -0.161873     -2.317512      1.155469
  H      -0.965251     -2.790459     -0.065523
  O       3.123544      1.123829     -1.092813
  H       2.693964      1.715993     -0.432935
  H       2.998597      1.558559     -1.942790
  O      -3.342584     -0.534665     -0.557875
  H      -3.725066      0.098632     -1.176578
  H      -3.528849     -0.174083      0.321568
  O      -1.150879     -1.496573     -2.349942
  H      -0.634172     -1.181808     -3.101836
  H      -2.073562     -1.374369     -2.604355
  O       1.480560     -0.976339     -0.925174
  H       2.112023     -0.215778     -1.030962
  H       1.416837     -1.381383     -1.797826
25
Coordinates from ORCA-job pb_aquo8 E -803.842888687257
  Pb     -0.752427      0.065374     -0.350287
  O       0.811269      0.133401      1.809162
  H       1.419612     -0.615457      1.803019
  H       0.283139      0.036997      2.610343
  O       1.879346      2.540653      0.880225
  H       1.134125      3.013913      0.494630
  H       1.482506      1.752881      1.297744
  O      -2.318953      0.353279      1.903433
  H      -2.064993      1.175056      2.338938
  H      -2.065305     -0.346041      2.517302
  O      -0.969239     -2.144296      0.654726
  H      -0.159210     -2.317632      1.152787
  H      -0.968228     -2.790612     -0.064335
  O       3.122961      1.123711     -1.091960
  H       2.692822      1.715149     -0.431680
  H       2.998190      1.559131     -1.941601
  O      -3.342243     -0.536680     -0.556270
  H      -3.723669      0.096083     -1.176197
  H      -3.528568     -0.174193      0.322456
  O      -1.150038     -1.495990     -2.351017
  H      -0.633070     -1.180700     -3.102514
  H      -2.072579     -1.375295     -2.606676
  O       1.479646     -0.976659     -0.925707
  H       2.111191     -0.216089     -1.031134
  H       1.417091     -1.381978     -1.798353
25
Coordinates from ORCA-job pb_aquo8 E -803.842913718335
  Pb     -0.753470      0.065334     -0.349965
  O       0.811859      0.133363      1.809046
  H       1.420112     -0.615620      1.800640
  H       0.283352      0.034843      2.609771
  O       1.876787      2.539526      0.880946
  H       1.131123      3.013040      0.496553
  H       1.481388      1.750526      1.297501
  O      -2.317717      0.357398      1.903310
  H      -2.060660      1.178641      2.338033
  H      -2.067293     -0.342252      2.518159
  O      -0.968811     -2.143878      0.656164
  H      -0.156075     -2.318347      1.149418
  H      -0.973112     -2.790876     -0.062347
  O       3.122614      1.124388     -1.091467
  H       2.691987      1.714700     -0.430414
  H       2.996705      1.560582     -1.940542
  O      -3.340840     -0.538654     -0.554415
  H      -3.720720      0.093330     -1.176116
  H      -3.527885     -0.174009      0.323348
  O      -1.149641     -1.495600     -2.352185
  H      -0.632110     -1.179981     -3.103186
  H      -2.071770     -1.375718     -2.609730
  O       1.479420     -0.977218     -0.925965
  H       2.110637     -0.216399     -1.031167
  H       1.417498     -1.383116     -1.798355
25
Coordinates from ORCA-job pb_aquo8 E -803.842911510722
  Pb     -0.753649      0.065585     -0.349544
  O       0.812304      0.133520      1.808941
  H       1.420675     -0.615464      1.799509
  H       0.283246      0.033604      2.609205
  O       1.875097      2.539066      0.880991
  H       1.128763      3.011774      0.496968
  H       1.480459      1.749694      1.297781
  O      -2.317016      0.358681      1.903128
  H      -2.058403      1.179337      2.338067
  H      -2.067979     -0.341458      2.518016
  O      -0.968761     -2.143276      0.656651
  H      -0.155024     -2.318655      1.147917
  H      -0.975537     -2.790551     -0.061539
  O       3.122663      1.125277     -1.091462
  H       2.691861      1.714691     -0.429819
  H       2.995360      1.561914     -1.940114
  O      -3.339596     -0.538392     -0.554144
  H      -3.718176      0.093822     -1.176420
  H      -3.527187     -0.173598      0.323418
  O      -1.149879     -1.495990     -2.352132
  H      -0.632474     -1.180360     -3.103241
  H      -2.071868     -1.376521     -2.610498
  O       1.479980     -0.977627     -0.925739
  H       2.110819     -0.216744     -1.031221
  H       1.417698     -1.384322     -1.797687
25
Coordinates from ORCA-job pb_aquo8 E -803.842916107523
  Pb     -0.753467      0.065314     -0.348984
  O       0.813135      0.133410      1.808971
  H       1.421634     -0.615470      1.798145
  H       0.283559      0.031468      2.608656
  O       1.873425      2.538858      0.881083
  H       1.126130      3.010584      0.497771
  H       1.479457      1.749616      1.298759
  O      -2.316460      0.360509      1.903045
  H      -2.056220      1.180574      2.338170
  H      -2.068661     -0.340021      2.517916
  O      -0.968516     -2.142783      0.657973
  H      -0.153258     -2.319507      1.146305
  H      -0.979222     -2.790637     -0.059642
  O       3.121982      1.126137     -1.091807
  H       2.691398      1.715034     -0.429703
  H       2.993125      1.563100     -1.940080
  O      -3.337932     -0.538431     -0.553691
  H      -3.715764      0.092889     -1.177339
  H      -3.526879     -0.172711      0.323202
  O      -1.150005     -1.495651     -2.352636
  H      -0.631907     -1.180263     -3.103390
  H      -2.071564     -1.375540     -2.612234
  O       1.480806     -0.978781     -0.925345
  H       2.110875     -0.217562     -1.031278
  H       1.417707     -1.386133     -1.796836
25
Coordinates from ORCA-job pb_aquo8 E -803.842929254533
  Pb     -0.753314      0.065433     -0.348731
  O       0.813637      0.133193      1.808591
  H       1.422178     -0.615654      1.797125
  H       0.284198      0.030476      2.608280
  O       1.872569      2.539394      0.881109
  H       1.124652      3.009858      0.497490
  H       1.478946      1.750107      1.299228
  O      -2.316014      0.361184      1.903126
  H      -2.054739      1.180742      2.338607
  H      -2.068146     -0.339800      2.517451
  O      -0.968812     -2.142270      0.658319
  H      -0.153051     -2.319991      1.145438
  H      -0.981541     -2.790228     -0.059086
  O       3.121708      1.126567     -1.091507
  H       2.691260      1.715457     -0.429477
  H       2.992802      1.563662     -1.939720
  O      -3.337344     -0.538152     -0.553634
  H      -3.715231      0.092548     -1.177870
  H      -3.527143     -0.172454      0.322946
  O      -1.149864     -1.495625     -2.352684
  H      -0.631850     -1.180038     -3.103416
  H      -2.071449     -1.376077     -2.612560
  O       1.481212     -0.979241     -0.924856
  H       2.111028     -0.217997     -1.031100
  H       1.417685     -1.387089     -1.796037
25
Coordinates from ORCA-job pb_aquo8 E -803.842954329547
  Pb     -0.753395      0.065228     -0.348628
  O       0.814692      0.132340      1.807796
  H       1.424095     -0.615719      1.795307
  H       0.286194      0.028052      2.607846
  O       1.870656      2.540642      0.881817
  H       1.121710      3.008939      0.497578
  H       1.477788      1.751196      1.300484
  O      -2.315331      0.363636      1.903558
  H      -2.051795      1.182550      2.338909
  H      -2.066800     -0.337719      2.517045
  O      -0.968807     -2.141396      0.659873
  H      -0.151082     -2.320903      1.143061
  H      -0.987260     -2.790142     -0.056601
  O       3.120609      1.126615     -1.090454
  H       2.690610      1.715990     -0.428863
  H       2.992504      1.563967     -1.938679
  O      -3.335739     -0.538980     -0.552594
  H      -3.714728      0.088419     -1.179489
  H      -3.528282     -0.171489      0.322531
  O      -1.149506     -1.494231     -2.353988
  H      -0.631075     -1.178208     -3.104243
  H      -2.070963     -1.375709     -2.614855
  O       1.481359     -0.980723     -0.924349
  H       2.110728     -0.219424     -1.030816
  H       1.417196     -1.388926     -1.795214
25
Coordinates from ORCA-job pb_aquo8 E -803.842922808261
  Pb     -0.753396      0.065737     -0.348058
  O       0.816089      0.130781      1.806989
  H       1.426746     -0.616109      1.792829
  H       0.288728      0.024091      2.607399
  O       1.867886      2.542413      0.882429
  H       1.117913      3.008076      0.496933
  H       1.476459      1.752506      1.301657
  O      -2.313926      0.366602      1.904324
  H      -2.046397      1.184044      2.340021
  H      -2.065128     -0.336224      2.515990
  O      -0.969530     -2.139898      0.661257
  H      -0.149580     -2.322329      1.139562
  H      -0.995274     -2.788963     -0.054643
  O       3.118969      1.126957     -1.089471
  H       2.689051      1.716763     -0.428440
  H       2.992518      1.564697     -1.937758
  O      -3.334698     -0.539121     -0.552250
  H      -3.714637      0.085572     -1.181287
  H      -3.530290     -0.170520      0.321399
  O      -1.147734     -1.493378     -2.354493
  H      -0.629438     -1.176393     -3.104412
  H      -2.069363     -1.377888     -2.616104
  O       1.481302     -0.981838     -0.923070
  H       2.110347     -0.220583     -1.030426
  H       1.416762     -1.390991     -1.793345
25
Coordinates from ORCA-job pb_aquo8 E -803.842939198732
  Pb     -0.754434      0.066059     -0.348074
  O       0.817426      0.128599      1.805571
  H       1.430596     -0.616101      1.789807
  H       0.292050      0.019335      2.606859
  O       1.864882      2.544131      0.883852
  H       1.114451      3.007418      0.496262
  H       1.475020      1.753252      1.302820
  O      -2.312299      0.371631      1.905556
  H      -2.039645      1.187867      2.340333
  H      -2.063120     -0.332256      2.515711
  O      -0.969953     -2.137960      0.663606
  H      -0.146236     -2.323476      1.134142
  H      -1.006600     -2.788138     -0.050811
  O       3.117453      1.126597     -1.086933
  H       2.687254      1.716995     -0.426716
  H       2.994034      1.564846     -1.935405
  O      -3.333133     -0.542019     -0.550243
  H      -3.715071      0.076991     -1.183705
  H      -3.533335     -0.169662      0.320703
  O      -1.146142     -1.491152     -2.356534
  H      -0.627729     -1.172868     -3.105784
  H      -2.067858     -1.379790     -2.619554
  O       1.480222     -0.982684     -0.922268
  H       2.109419     -0.221592     -1.029730
  H       1.416125     -1.392016     -1.792433
25
Coordinates from ORCA-job pb_aquo8 E -803.842922403238
  Pb     -0.755392      0.066935     -0.347607
  O       0.818608      0.126381      1.805044
  H       1.434454     -0.616084      1.787095
  H       0.294259      0.013425      2.606477
  O       1.861619      2.544996      0.884645
  H       1.111020      3.006378      0.494996
  H       1.473712      1.753205      1.303544
  O      -2.310192      0.376685      1.906791
  H      -2.031561      1.191136      2.341106
  H      -2.062220     -0.329153      2.515261
  O      -0.970769     -2.136086      0.665721
  H      -0.143130     -2.325068      1.127908
  H      -1.018233     -2.786708     -0.047693
  O       3.116190      1.126792     -1.085486
  H       2.685223      1.717216     -0.425584
  H       2.994854      1.565390     -1.934053
  O      -3.332219     -0.544070     -0.549380
  H      -3.715290      0.071078     -1.185950
  H      -3.536591     -0.169212      0.319415
  O      -1.143942     -1.489888     -2.357277
  H      -0.625782     -1.170196     -3.106069
  H      -2.065815     -1.383046     -2.621421
  O       1.479483     -0.982366     -0.920830
  H       2.108797     -0.221343     -1.028871
  H       1.416295     -1.392392     -1.790750
25
Coordinates from ORCA-job pb_aquo8 E -803.842901749770
  Pb     -0.756125      0.067259     -0.347983
  O       0.818329      0.126233      1.805171
  H       1.435298     -0.615360      1.787284
  H       0.293807      0.012743      2.606475
  O       1.861527      2.544153      0.884705
  H       1.111385      3.005369      0.493941
  H       1.473718      1.752146      1.303286
  O      -2.309760      0.377405      1.907091
  H      -2.029905      1.191820      2.340674
  H      -2.061926     -0.328577      2.515521
  O      -0.970645     -2.135762      0.666339
  H      -0.141868     -2.324482      1.126419
  H      -1.019918     -2.786768     -0.046509
  O       3.116789      1.126592     -1.084812
  H       2.685320      1.716683     -0.424690
  H       2.995217      1.565097     -1.933375
  O      -3.332425     -0.545198     -0.549311
  H      -3.715531      0.069074     -1.186706
  H      -3.537601     -0.169493      0.319104
  O      -1.144188     -1.489504     -2.357468
  H      -0.626318     -1.169440     -3.106298
  H      -2.066163     -1.383555     -2.621671
  O       1.479050     -0.981203     -0.920772
  H       2.108797     -0.220256     -1.028450
  H       1.416514     -1.390971     -1.790934
25
Coordinates from ORCA-job pb_aquo8 E -803.842921989554
  Pb     -0.756437      0.067578     -0.347619
  O       0.818286      0.125971      1.805481
  H       1.435957     -0.615162      1.786428
  H       0.293123      0.010529      2.606171
  O       1.861034      2.543201      0.884375
  H       1.111027      3.003881      0.492758
  H       1.473538      1.751314      1.303263
  O      -2.308914      0.378992      1.907568
  H      -2.026901      1.192633      2.341210
  H      -2.062422     -0.327879      2.515606
  O      -0.971478     -2.135432      0.667311
  H      -0.141062     -2.325328      1.124037
  H      -1.024366     -2.786688     -0.045194
  O       3.117159      1.127361     -1.085059
  H       2.684945      1.716862     -0.424598
  H       2.994439      1.565601     -1.933571
  O      -3.332178     -0.546145     -0.549373
  H      -3.714635      0.067693     -1.187575
  H      -3.538365     -0.169686      0.318584
  O      -1.143653     -1.489821     -2.357164
  H      -0.625560     -1.169417     -3.105707
  H      -2.065425     -1.383649     -2.621815
  O       1.479267     -0.979880     -0.920010
  H       2.108996     -0.218709     -1.027873
  H       1.417003     -1.389814     -1.790201
25
Coordinates from ORCA-job pb_aquo8 E -803.842904854109
  Pb     -0.756441      0.067619     -0.347503
  O       0.818214      0.125928      1.805629
  H       1.436225     -0.615029      1.786130
  H       0.292856      0.009816      2.606155
  O       1.861000      2.542729      0.883993
  H       1.110895      3.002715      0.491821
  H       1.473471      1.751021      1.303184
  O      -2.308724      0.379472      1.907570
  H      -2.025717      1.192761      2.341238
  H      -2.062356     -0.327740      2.515347
  O      -0.971877     -2.135431      0.667984
  H      -0.140642     -2.325621      1.123117
  H      -1.026162     -2.786843     -0.044235
  O       3.117474      1.127803     -1.085004
  H       2.684887      1.717052     -0.424459
  H       2.994205      1.565893     -1.933509
  O      -3.332173     -0.546700     -0.549505
  H      -3.714304      0.066722     -1.188274
  H      -3.538616     -0.169772      0.318269
  O      -1.143811     -1.489803     -2.356949
  H      -0.625665     -1.169132     -3.105356
  H      -2.065499     -1.382726     -2.621592
  O       1.479601     -0.979385     -0.919661
  H       2.109202     -0.218024     -1.027412
  H       1.417333     -1.389320     -1.789945
25
Coordinates from ORCA-job pb_aquo8 E -803.842909815353
  Pb     -0.756086      0.067780     -0.347033
  O       0.818308      0.125620      1.805749
  H       1.436486     -0.615242      1.785267
  H       0.293025      0.008473      2.606186
  O       1.860257      2.542622      0.883442
  H       1.109796      3.001256      0.490436
  H       1.472973      1.751197      1.303269
  O      -2.308178      0.380121      1.907531
  H      -2.023420      1.192497      2.341797
  H      -2.061834     -0.327994      2.514338
  O      -0.972868     -2.135324      0.668819
  H      -0.140623     -2.326466      1.121800
  H      -1.029267     -2.786587     -0.043352
  O       3.117450      1.128693     -1.085134
  H       2.684373      1.717778     -0.424738
  H       2.993964      1.566643     -1.933673
  O      -3.332060     -0.546721     -0.549919
  H      -3.713722      0.066551     -1.189092
  H      -3.538866     -0.169635      0.317680
  O      -1.143248     -1.490144     -2.356306
  H      -0.625192     -1.168876     -3.104542
  H      -2.064898     -1.381840     -2.620680
  O       1.480107     -0.979250     -0.918883
  H       2.109372     -0.217629     -1.026879
  H       1.417530     -1.389519     -1.789051
25
Coordinates from ORCA-job pb_aquo8 E -803.842919881416
  Pb     -0.755887      0.067715     -0.346951
  O       0.818506      0.125312      1.805636
  H       1.436862     -0.615377      1.784439
  H       0.293782      0.007641      2.606325
  O       1.859504      2.543009      0.883304
  H       1.108727      3.000518      0.489635
  H       1.472500      1.751572      1.303406
  O      -2.308019      0.380874      1.907403
  H      -2.022127      1.192643      2.342083
  H      -2.061284     -0.327795      2.513403
  O      -0.973078     -2.135233      0.669765
  H      -0.139835     -2.326957      1.120806
  H      -1.031673     -2.786720     -0.042048
  O       3.117232      1.129000     -1.084731
  H       2.683834      1.718053     -0.424627
  H       2.994334      1.567054     -1.933305
  O      -3.331741     -0.546985     -0.549803
  H      -3.713578      0.065177     -1.189912
  H      -3.539104     -0.169222      0.317353
  O      -1.143134     -1.489780     -2.356334
  H      -0.625125     -1.168171     -3.104467
  H      -2.064748     -1.380470     -2.620389
  O       1.480354     -0.979743     -0.918609
  H       2.109337     -0.217983     -1.026564
  H       1.417738     -1.390126     -1.788786
25
Coordinates from ORCA-job pb_aquo8 E -803.842930898887
  Pb     -0.755570      0.067958     -0.346840
  O       0.818506      0.124848      1.805650
  H       1.437169     -0.615502      1.784063
  H       0.294632      0.007067      2.606807
  O       1.858139      2.543497      0.883008
  H       1.107173      2.999700      0.488194
  H       1.471635      1.751978      1.303359
  O      -2.307724      0.381157      1.907072
  H      -2.020717      1.192146      2.342483
  H      -2.060525     -0.328386      2.511861
  O      -0.973363     -2.135074      0.670241
  H      -0.139438     -2.327205      1.119854
  H      -1.033156     -2.786173     -0.041750
  O       3.117200      1.129216     -1.084252
  H       2.683411      1.718378     -0.424648
  H       2.995461      1.567407     -1.932918
  O      -3.331654     -0.546589     -0.550031
  H      -3.713516      0.065387     -1.190297
  H      -3.539193     -0.168895      0.317032
  O      -1.142716     -1.489921     -2.355788
  H      -0.625394     -1.167641     -3.104116
  H      -2.064600     -1.379854     -2.618746
  O       1.480443     -0.980232     -0.918400
  H       2.109332     -0.218470     -1.026321
  H       1.417842     -1.390791     -1.788486
25
Coordinates from ORCA-job pb_aquo8 E -803.842930179093
  Pb     -0.755428      0.068062     -0.346974
  O       0.818484      0.124523      1.805564
  H       1.437344     -0.615544      1.783424
  H       0.295482      0.006597      2.607209
  O       1.856678      2.544007      0.882934
  H       1.105609      2.999169      0.487080
  H       1.470773      1.752117      1.303199
  O      -2.307528      0.381822      1.906841
  H      -2.019723      1.192094      2.343049
  H      -2.060260     -0.328578      2.510536
  O      -0.973056     -2.134715      0.670875
  H      -0.138284     -2.327301      1.118789
  H      -1.034881     -2.785891     -0.040940
  O       3.117250      1.129094     -1.083498
  H       2.683188      1.718303     -0.424261
  H       2.996748      1.567577     -1.932192
  O      -3.331436     -0.546646     -0.549695
  H      -3.713268      0.064691     -1.190597
  H      -3.539202     -0.168337      0.317002
  O      -1.142595     -1.489847     -2.355778
  H      -0.625704     -1.167304     -3.104291
  H      -2.064635     -1.378850     -2.617722
  O       1.480399     -0.980744     -0.918571
  H       2.109291     -0.219054     -1.026263
  H       1.418130     -1.391239     -1.788689
25
Coordinates from ORCA-job pb_aquo8 E -803.842930556333
  Pb     -0.755429      0.068455     -0.347379
  O       0.818174      0.124207      1.805475
  H       1.437519     -0.615365      1.783016
  H       0.296044      0.006249      2.607642
  O       1.854776      2.544250      0.882690
  H       1.103779      2.998078      0.485094
  H       1.469598      1.751886      1.302806
  O      -2.307091      0.382556      1.906588
  H      -2.018600      1.191956      2.343944
  H      -2.060355     -0.329024      2.509063
  O      -0.972375     -2.133937      0.671229
  H      -0.136719     -2.327015      1.117216
  H      -1.036441     -2.785026     -0.040464
  O       3.117985      1.128703     -1.082232
  H       2.683522      1.717919     -0.423339
  H       2.998855      1.567520     -1.930947
  O      -3.331401     -0.546870     -0.549231
  H      -3.712821      0.064283     -1.190571
  H      -3.539230     -0.168003      0.317163
  O      -1.142797     -1.490187     -2.355660
  H      -0.626735     -1.167452     -3.104655
  H      -2.065183     -1.378371     -2.616062
  O       1.480199     -0.980675     -0.919007
  H       2.109449     -0.219231     -1.026116
  H       1.418653     -1.390901     -1.789231
25
Coordinates from ORCA-job pb_aquo8 E -803.842926143085
  Pb     -0.755567      0.068653     -0.347816
  O       0.817912      0.124140      1.805471
  H       1.437668     -0.615075      1.782650
  H       0.295985      0.005672      2.607722
  O       1.853624      2.544088      0.882455
  H       1.102676      2.996978      0.483646
  H       1.468899      1.751449      1.302528
  O      -2.306762      0.383564      1.906611
  H      -2.018037      1.192339      2.344939
  H      -2.061152     -0.328867      2.508510
  O      -0.971522     -2.133155      0.671568
  H      -0.135029     -2.326948      1.115626
  H      -1.038182     -2.784461     -0.039714
  O       3.118906      1.128286     -1.081279
  H       2.684266      1.717454     -0.422418
  H       3.000141      1.567243     -1.929976
  O      -3.331259     -0.547594     -0.548554
  H      -3.712333      0.063160     -1.190503
  H      -3.539366     -0.167883      0.317401
  O      -1.143292     -1.490410     -2.355899
  H      -0.627461     -1.167953     -3.105167
  H      -2.065783     -1.377855     -2.615553
  O       1.480124     -0.980096     -0.919447
  H       2.109716     -0.218826     -1.025912
  H       1.419205     -1.389898     -1.789858
25
Coordinates from ORCA-job pb_aquo8 E -803.842924576271
  Pb     -0.755659      0.068775     -0.348177
  O       0.817705      0.124104      1.805387
  H       1.437833     -0.614848      1.782270
  H       0.295704      0.004986      2.607558
  O       1.852836      2.543813      0.882243
  H       1.101858      2.995854      0.482508
  H       1.468339      1.751141      1.302507
  O      -2.306265      0.384835      1.906745
  H      -2.017377      1.193152      2.345800
  H      -2.061945     -0.328174      2.508506
  O      -0.970897     -2.132423      0.671766
  H      -0.133678     -2.327184      1.113950
  H      -1.040153     -2.783874     -0.039100
  O       3.119775      1.127968     -1.080367
  H       2.684923      1.717124     -0.421550
  H       3.000966      1.566827     -1.929111
  O      -3.331079     -0.548712     -0.547770
  H      -3.711863      0.061574     -1.190359
  H      -3.539528     -0.168090      0.317706
  O      -1.143815     -1.490552     -2.356234
  H      -0.627838     -1.168392     -3.105525
  H      -2.066269     -1.377504     -2.615784
  O       1.480171     -0.979397     -0.919820
  H       2.110077     -0.218252     -1.025692
  H       1.419554     -1.388746     -1.790424
25
Coordinates from ORCA-job pb_aquo8 E -803.842928821834
  Pb     -0.755597      0.068767     -0.348405
  O       0.817590      0.124297      1.805403
  H       1.437726     -0.614698      1.782362
  H       0.295284      0.005036      2.607401
  O       1.852956      2.543567      0.882036
  H       1.101947      2.995358      0.482084
  H       1.468334      1.751082      1.302534
  O      -2.306097      0.385156      1.906707
  H      -2.017624      1.193428      2.346119
  H      -2.062436     -0.327888      2.508722
  O      -0.970501     -2.132219      0.671586
  H      -0.133303     -2.327353      1.113536
  H      -1.040261     -2.783674     -0.039142
  O       3.120376      1.127770     -1.079953
  H       2.685450      1.716959     -0.421142
  H       3.001213      1.566441     -1.928750
  O      -3.331225     -0.549247     -0.547518
  H      -3.712020      0.061086     -1.190061
  H      -3.539481     -0.168406      0.317890
  O      -1.144339     -1.490645     -2.356313
  H      -0.628155     -1.168809     -3.105602
  H      -2.066726     -1.377438     -2.616045
  O       1.480285     -0.978867     -0.920054
  H       2.110379     -0.217799     -1.025566
  H       1.419601     -1.387899     -1.790795
25
Coordinates from ORCA-job pb_aquo8 E -803.842926836258
  Pb     -0.755570      0.068740     -0.348576
  O       0.817694      0.124237      1.805304
  H       1.437980     -0.614653      1.781821
  H       0.295385      0.004371      2.607229
  O       1.852393      2.543613      0.882061
  H       1.101222      2.994709      0.481650
  H       1.467932      1.751237      1.302873
  O      -2.305528      0.386394      1.906720
  H      -2.016540      1.194308      2.346463
  H      -2.062562     -0.326909      2.508721
  O      -0.970265     -2.131899      0.671878
  H      -0.132367     -2.327929      1.112127
  H      -1.042260     -2.783473     -0.038513
  O       3.120649      1.127671     -1.079202
  H       2.685457      1.716941     -0.420605
  H       3.001483      1.566133     -1.928109
  O      -3.331014     -0.550143     -0.546986
  H      -3.712036      0.059491     -1.190066
  H      -3.539621     -0.168530      0.317976
  O      -1.144541     -1.490463     -2.356619
  H      -0.628028     -1.168654     -3.105697
  H      -2.066788     -1.377344     -2.616868
  O       1.480336     -0.978686     -0.920160
  H       2.110540     -0.217666     -1.025395
  H       1.419427     -1.387491     -1.790994
25
Coordinates from ORCA-job pb_aquo8 E -803.842925073321
  Pb     -0.755533      0.068770     -0.348917
  O       0.817822      0.124085      1.805033
  H       1.438376     -0.614575      1.780912
  H       0.295880      0.003615      2.607107
  O       1.851319      2.543932      0.882131
  H       1.099962      2.993800      0.480714
  H       1.467218      1.751531      1.303217
  O      -2.304718      0.388309      1.906554
  H      -2.014740      1.195595      2.346816
  H      -2.062519     -0.325509      2.508288
  O      -0.969827     -2.131465      0.672300
  H      -0.130808     -2.328767      1.109841
  H      -1.045251     -2.783162     -0.037584
  O       3.121147      1.127416     -1.077568
  H       2.685339      1.716838     -0.419520
  H       3.002684      1.565678     -1.926680
  O      -3.330838     -0.551530     -0.546094
  H      -3.712468      0.056801     -1.190049
  H      -3.539705     -0.168644      0.318212
  O      -1.144924     -1.490086     -2.356966
  H      -0.628191     -1.168154     -3.105847
  H      -2.067071     -1.377294     -2.617725
  O       1.480311     -0.978557     -0.920488
  H       2.110788     -0.217674     -1.025132
  H       1.419123     -1.386947     -1.791523
25
Coordinates from ORCA-job pb_aquo8 E -803.842929235159
  Pb     -0.755525      0.068834     -0.349256
  O       0.817935      0.123785      1.804734
  H       1.438818     -0.614558      1.779889
  H       0.296682      0.002850      2.607152
  O       1.849744      2.544548      0.882353
  H       1.098275      2.993179      0.479779
  H       1.466197      1.751983      1.303580
  O      -2.303833      0.390341      1.906328
  H      -2.012459      1.196856      2.347095
  H      -2.062266     -0.324170      2.507494
  O      -0.969412     -2.131083      0.672753
  H      -0.129118     -2.329656      1.107258
  H      -1.048441     -2.782778     -0.036714
  O       3.121557      1.127066     -1.075762
  H       2.685069      1.716753     -0.418433
  H       3.004419      1.565242     -1.925097
  O      -3.330640     -0.552784     -0.545134
  H      -3.712984      0.054170     -1.189969
  H      -3.539603     -0.168496      0.318520
  O      -1.145080     -1.489782     -2.357265
  H      -0.628348     -1.167573     -3.106038
  H      -2.067199     -1.377440     -2.618333
  O       1.480086     -0.978681     -0.920882
  H       2.110876     -0.217985     -1.024903
  H       1.418629     -1.386616     -1.792117
25
Coordinates from ORCA-job pb_aquo8 E -803.842927070007
  Pb     -0.755522      0.068946     -0.349476
  O       0.817920      0.123772      1.804575
  H       1.438781     -0.614537      1.779339
  H       0.297103      0.002885      2.607256
  O       1.848887      2.545071      0.882505
  H       1.097427      2.993101      0.479230
  H       1.465697      1.752255      1.303582
  O      -2.303524      0.391082      1.906108
  H      -2.011420      1.197142      2.347228
  H      -2.062095     -0.323938      2.506747
  O      -0.969076     -2.131054      0.672814
  H      -0.128252     -2.330056      1.106086
  H      -1.049518     -2.782720     -0.036520
  O       3.121878      1.126816     -1.074655
  H       2.684948      1.716646     -0.417795
  H       3.005795      1.565038     -1.924115
  O      -3.330705     -0.553027     -0.544748
  H      -3.713503      0.053394     -1.189808
  H      -3.539227     -0.168232      0.318784
  O      -1.145270     -1.489764     -2.357208
  H      -0.628793     -1.167464     -3.106120
  H      -2.067471     -1.377874     -2.618194
  O       1.479928     -0.978772     -0.921180
  H       2.110964     -0.218249     -1.024856
  H       1.418423     -1.386458     -1.792549
25
Coordinates from ORCA-job pb_aquo8 E -803.842930977332
  Pb     -0.755489      0.068980     -0.349592
  O       0.817690      0.124216      1.804656
  H       1.438089     -0.614428      1.779833
  H       0.296912      0.004348      2.607468
  O       1.849284      2.545440      0.882569
  H       1.098133      2.994035      0.479330
  H       1.465942      1.752529      1.303296
  O      -2.304139      0.389699      1.905856
  H      -2.012517      1.195942      2.346945
  H      -2.061939     -0.325308      2.506175
  O      -0.968821     -2.131656      0.672223
  H      -0.128702     -2.329725      1.107192
  H      -1.047016     -2.783183     -0.037468
  O       3.122140      1.126555     -1.074566
  H       2.685238      1.716543     -0.417877
  H       3.006706      1.564915     -1.924043
  O      -3.331261     -0.551941     -0.545168
  H      -3.714304      0.055270     -1.189327
  H      -3.538351     -0.167752      0.319034
  O      -1.145547     -1.490185     -2.356716
  H      -0.629549     -1.168137     -3.106064
  H      -2.067937     -1.378567     -2.617216
  O       1.479723     -0.978837     -0.921489
  H       2.110963     -0.218469     -1.025070
  H       1.418130     -1.386279     -1.792950
25
Coordinates from ORCA-job pb_aquo8 E -803.842923816940
  Pb     -0.755593      0.068954     -0.349607
  O       0.817544      0.124382      1.804683
  H       1.437874     -0.614328      1.780089
  H       0.296519      0.004674      2.607356
  O       1.849685      2.545375      0.882513
  H       1.098654      2.994315      0.479428
  H       1.466159      1.752515      1.303194
  O      -2.304572      0.389288      1.905922
  H      -2.013220      1.195672      2.346917
  H      -2.062324     -0.325640      2.506301
  O      -0.968660     -2.131842      0.672004
  H      -0.128692     -2.329587      1.107526
  H      -1.046206     -2.783424     -0.037797
  O       3.122318      1.126465     -1.074669
  H       2.685514      1.716455     -0.417921
  H       3.006901      1.564896     -1.924112
  O      -3.331301     -0.551640     -0.545162
  H      -3.714354      0.055772     -1.189120
  H      -3.537957     -0.167619      0.319258
  O      -1.145733     -1.490383     -2.356617
  H      -0.629739     -1.168683     -3.106114
  H      -2.068129     -1.378759     -2.617073
  O       1.479623     -0.978659     -0.921642
  H       2.110945     -0.218306     -1.025120
  H       1.418120     -1.385889     -1.793202
25
Coordinates from ORCA-job pb_aquo8 E -803.842927986864
  Pb     -0.755773      0.068883     -0.349683
  O       0.817324      0.124736      1.804670
  H       1.437637     -0.614038      1.780416
  H       0.295873      0.005178      2.607117
  O       1.850201      2.545255      0.882360
  H       1.099366      2.994406      0.479144
  H       1.466339      1.752613      1.303154
  O      -2.305329      0.388633      1.906152
  H      -2.014100      1.195115      2.347035
  H      -2.062862     -0.326333      2.506373
  O      -0.968337     -2.132017      0.671797
  H      -0.128395     -2.329351      1.107632
  H      -1.045388     -2.783700     -0.038035
  O       3.122850      1.126264     -1.074577
  H       2.686227      1.716444     -0.417826
  H       3.007576      1.564691     -1.924034
  O      -3.331529     -0.551235     -0.545050
  H      -3.714550      0.056449     -1.188763
  H      -3.537551     -0.167262      0.319607
  O      -1.146137     -1.490834     -2.356568
  H      -0.630127     -1.169672     -3.106281
  H      -2.068532     -1.379135     -2.616923
  O       1.479520     -0.978249     -0.921917
  H       2.111009     -0.217930     -1.025056
  H       1.418065     -1.384905     -1.793709
25
Coordinates from ORCA-job pb_aquo8 E -803.842922918796
  Pb     -0.755965      0.068876     -0.349847
  O       0.817030      0.125077      1.804611
  H       1.437520     -0.613609      1.780603
  H       0.295079      0.005368      2.606734
  O       1.850318      2.545206      0.882064
  H       1.099598      2.994019      0.478250
  H       1.466190      1.752875      1.303234
  O      -2.305914      0.388369      1.906376
  H      -2.014253      1.194606      2.347408
  H      -2.063424     -0.326976      2.506130
  O      -0.967780     -2.131983      0.671697
  H      -0.127420     -2.329287      1.106785
  H      -1.045416     -2.783697     -0.038061
  O       3.123623      1.125980     -1.073967
  H       2.686908      1.716399     -0.417449
  H       3.008942      1.564338     -1.923540
  O      -3.331862     -0.550961     -0.544772
  H      -3.714768      0.056950     -1.188338
  H      -3.537222     -0.166885      0.320005
  O      -1.146656     -1.491353     -2.356356
  H      -0.630660     -1.170788     -3.106329
  H      -2.069080     -1.379726     -2.616660
  O       1.479397     -0.977726     -0.922292
  H       2.111115     -0.217490     -1.024801
  H       1.418078     -1.383576     -1.794453
25
Coordinates from ORCA-job pb_aquo8 E -803.842927813994
  Pb     -0.756316      0.068739     -0.350158
  O       0.816771      0.125353      1.804226
  H       1.437464     -0.613198      1.780137
  H       0.294542      0.005198      2.606114
  O       1.849861      2.545395      0.881895
  H       1.099242      2.993478      0.477084
  H       1.465591      1.753329      1.303467
  O      -2.306287      0.389089      1.906762
  H      -2.013332      1.194791      2.347902
  H      -2.063816     -0.326838      2.505803
  O      -0.967110     -2.131793      0.671983
  H      -0.125586     -2.329572      1.104592
  H      -1.047186     -2.783574     -0.037420
  O       3.124498      1.125590     -1.072482
  H       2.687426      1.716475     -0.416603
  H       3.011279      1.563812     -1.922316
  O      -3.332136     -0.551404     -0.543749
  H      -3.715070      0.056028     -1.187756
  H      -3.537142     -0.166447      0.320716
  O      -1.147119     -1.491726     -2.356540
  H      -0.630928     -1.171630     -3.106578
  H      -2.069487     -1.380303     -2.617133
  O       1.479127     -0.977419     -0.922921
  H       2.111112     -0.217265     -1.024364
  H       1.417977     -1.382101     -1.795625
25
Coordinates from ORCA-job pb_aquo8 E -803.842930642918
  Pb     -0.756936      0.068495     -0.350805
  O       0.816519      0.125502      1.803410
  H       1.437660     -0.612685      1.778578
  H       0.294271      0.004085      2.605110
  O       1.848050      2.546183      0.881684
  H       1.097402      2.992389      0.474848
  H       1.464070      1.754258      1.303844
  O      -2.306300      0.391673      1.907272
  H      -2.010222      1.196008      2.348820
  H      -2.064409     -0.325609      2.504943
  O      -0.965866     -2.131306      0.672839
  H      -0.121587     -2.330633      1.099324
  H      -1.052265     -2.783106     -0.035736
  O       3.125892      1.124825     -1.069159
  H       2.687827      1.716549     -0.414722
  H       3.015813      1.562813     -1.919526
  O      -3.332349     -0.552834     -0.541558
  H      -3.715517      0.053023     -1.186915
  H      -3.537307     -0.165864      0.321961
  O      -1.147846     -1.491925     -2.356921
  H      -0.631317     -1.172248     -3.106905
  H      -2.070094     -1.381217     -2.618216
  O       1.478706     -0.977184     -0.924023
  H       2.111114     -0.217199     -1.023428
  H       1.418069     -1.379986     -1.797686
25
Coordinates from ORCA-job pb_aquo8 E -803.842934917897
  Pb     -0.756908      0.068380     -0.350799
  O       0.816519      0.125544      1.803331
  H       1.437433     -0.612794      1.778592
  H       0.294370      0.004365      2.605111
  O       1.848079      2.546405      0.881751
  H       1.097462      2.992976      0.475260
  H       1.464127      1.754356      1.303682
  O      -2.306270      0.391533      1.907264
  H      -2.010249      1.195997      2.348623
  H      -2.064180     -0.325559      2.505089
  O      -0.966054     -2.131525      0.672760
  H      -0.121997     -2.330699      1.099596
  H      -1.051896     -2.783114     -0.035985
  O       3.125766      1.124834     -1.069181
  H       2.687623      1.716587     -0.414862
  H       3.015937      1.562818     -1.919584
  O      -3.332475     -0.552844     -0.541530
  H      -3.715590      0.053234     -1.186714
  H      -3.537401     -0.166045      0.322056
  O      -1.147682     -1.491872     -2.356918
  H      -0.631096     -1.172046     -3.106804
  H      -2.069919     -1.381163     -2.618321
  O       1.478687     -0.977513     -0.924115
  H       2.111026     -0.217502     -1.023505
  H       1.418064     -1.380349     -1.797765
25
Coordinates from ORCA-job pb_aquo8 E -803.842936062789
  Pb     -0.756816      0.068132     -0.350827
  O       0.816636      0.125461      1.803046
  H       1.437330     -0.612986      1.778034
  H       0.294633      0.004021      2.604860
  O       1.847494      2.546998      0.881764
  H       1.096741      2.993756      0.475725
  H       1.463907      1.754637      1.303407
  O      -2.305838      0.392175      1.907390
  H      -2.009169      1.196498      2.348581
  H      -2.063896     -0.324910      2.505318
  O      -0.966239     -2.131664      0.673062
  H      -0.121854     -2.331204      1.098972
  H      -1.053097     -2.783010     -0.035725
  O       3.125558      1.124848     -1.068762
  H       2.687089      1.716642     -0.414751
  H       3.016329      1.562863     -1.919233
  O      -3.332491     -0.553253     -0.541189
  H      -3.715451      0.052635     -1.186645
  H      -3.537922     -0.166354      0.322192
  O      -1.147496     -1.491553     -2.357053
  H      -0.630588     -1.171565     -3.106653
  H      -2.069597     -1.380769     -2.618877
  O       1.478781     -0.978195     -0.924221
  H       2.110952     -0.218106     -1.023472
  H       1.418383     -1.381092     -1.797908
25
Coordinates from ORCA-job pb_aquo8 E -803.842930329038
  Pb     -0.756891      0.067954     -0.351020
  O       0.816685      0.125488      1.802692
  H       1.437455     -0.612864      1.777545
  H       0.294748      0.003726      2.604498
  O       1.846793      2.547470      0.881632
  H       1.095928      2.993952      0.475502
  H       1.463541      1.754888      1.303134
  O      -2.305557      0.392798      1.907583
  H      -2.007985      1.196857      2.348652
  H      -2.063890     -0.324448      2.505440
  O      -0.966155     -2.131680      0.673381
  H      -0.121137     -2.331597      1.097835
  H      -1.054585     -2.782897     -0.035317
  O       3.125863      1.124591     -1.067909
  H       2.687080      1.716501     -0.414243
  H       3.017240      1.562646     -1.918438
  O      -3.332544     -0.553705     -0.540744
  H      -3.715374      0.051867     -1.186573
  H      -3.538304     -0.166504      0.322419
  O      -1.147646     -1.491413     -2.357172
  H      -0.630542     -1.171425     -3.106642
  H      -2.069679     -1.380644     -2.619253
  O       1.478738     -0.978358     -0.924454
  H       2.110983     -0.218259     -1.023197
  H       1.418611     -1.380938     -1.798320
25
Coordinates from ORCA-job pb_aquo8 E -803.842931370156
  Pb     -0.757199      0.067494     -0.351834
  O       0.816627      0.125692      1.801334
  H       1.437879     -0.612238      1.775634
  H       0.294742      0.002561      2.602973
  O       1.844085      2.549170      0.881053
  H       1.092937      2.993976      0.473627
  H       1.461860      1.756138      1.302552
  O      -2.304566      0.395357      1.908335
  H      -2.003461      1.198060      2.349483
  H      -2.064102     -0.323043      2.505305
  O      -0.965449     -2.131367      0.674376
  H      -0.117798     -2.333240      1.092638
  H      -1.060760     -2.782262     -0.033752
  O       3.127520      1.123548     -1.063987
  H       2.687347      1.716093     -0.411851
  H       3.021749      1.561593     -1.914881
  O      -3.332726     -0.555389     -0.538714
  H      -3.715319      0.048830     -1.185952
  H      -3.539149     -0.166594      0.323584
  O      -1.148586     -1.491496     -2.357561
  H      -0.630849     -1.172004     -3.106820
  H      -2.070386     -1.380777     -2.620468
  O       1.478510     -0.978410     -0.925576
  H       2.111324     -0.218449     -1.022157
  H       1.419149     -1.379237     -1.800311
25
Coordinates from ORCA-job pb_aquo8 E -803.842930272338
  Pb     -0.756989      0.067518     -0.351739
  O       0.816616      0.125919      1.801566
  H       1.437864     -0.612063      1.776274
  H       0.294544      0.003208      2.603162
  O       1.844514      2.549063      0.880975
  H       1.093387      2.994135      0.473810
  H       1.462110      1.756180      1.302567
  O      -2.304865      0.394235      1.908208
  H      -2.004500      1.197216      2.349350
  H      -2.064110     -0.323996      2.505251
  O      -0.965403     -2.131554      0.674142
  H      -0.118392     -2.332932      1.093927
  H      -1.059017     -2.782479     -0.034190
  O       3.127419      1.123475     -1.064547
  H       2.687533      1.715998     -0.412160
  H       3.021103      1.561532     -1.915366
  O      -3.332775     -0.554592     -0.539341
  H      -3.715336      0.050234     -1.186023
  H      -3.538743     -0.166332      0.323336
  O      -1.148781     -1.491723     -2.357390
  H      -0.631177     -1.172493     -3.106846
  H      -2.070633     -1.380600     -2.619941
  O       1.478599     -0.978336     -0.925491
  H       2.111415     -0.218383     -1.022350
  H       1.418993     -1.379227     -1.800151
25
Coordinates from ORCA-job pb_aquo8 E -803.842920083751
  Pb     -0.756463      0.067642     -0.351440
  O       0.816542      0.126566      1.802043
  H       1.437630     -0.611639      1.778061
  H       0.293988      0.005299      2.603561
  O       1.846171      2.548760      0.880700
  H       1.095145      2.994663      0.474260
  H       1.463134      1.756219      1.302360
  O      -2.305709      0.390811      1.907931
  H      -2.007750      1.194674      2.349079
  H      -2.063960     -0.326800      2.505284
  O      -0.965679     -2.132037      0.673222
  H      -0.120803     -2.332066      1.097984
  H      -1.053841     -2.782998     -0.035835
  O       3.127240      1.123470     -1.066088
  H       2.688087      1.715921     -0.413094
  H       3.019548      1.561485     -1.916760
  O      -3.332980     -0.552378     -0.541154
  H      -3.715511      0.054301     -1.186099
  H      -3.537718     -0.165970      0.322679
  O      -1.149255     -1.492540     -2.356844
  H      -0.632119     -1.173929     -3.106874
  H      -2.071292     -1.380420     -2.618361
  O       1.478768     -0.977943     -0.925173
  H       2.111635     -0.218011     -1.022789
  H       1.418569     -1.379076     -1.799620
25
Coordinates from ORCA-job pb_aquo8 E -803.842926935701
  Pb     -0.756377      0.067554     -0.351368
  O       0.816668      0.126613      1.802096
  H       1.437707     -0.611636      1.778292
  H       0.294055      0.005546      2.603599
  O       1.846333      2.548811      0.880714
  H       1.095288      2.995003      0.474629
  H       1.463268      1.756281      1.302363
  O      -2.305719      0.390319      1.907901
  H      -2.007953      1.194355      2.348870
  H      -2.063789     -0.327082      2.505414
  O      -0.965787     -2.132152      0.673255
  H      -0.121169     -2.331935      1.098680
  H      -1.053091     -2.783089     -0.035941
  O       3.126823      1.123472     -1.066323
  H       2.687797      1.715986     -0.413301
  H       3.019045      1.561440     -1.917008
  O      -3.332972     -0.552038     -0.541499
  H      -3.715324      0.055046     -1.186176
  H      -3.537730     -0.165940      0.322470
  O      -1.149194     -1.492579     -2.356868
  H      -0.631985     -1.173959     -3.106845
  H      -2.071201     -1.380247     -2.618393
  O       1.478744     -0.978190     -0.925127
  H       2.111492     -0.218187     -1.022873
  H       1.418446     -1.379384     -1.799529
25
Coordinates from ORCA-job pb_aquo8 E -803.842934304069
  Pb     -0.756481      0.066682     -0.351583
  O       0.817568      0.126593      1.801310
  H       1.438731     -0.611496      1.777186
  H       0.295105      0.004989      2.602783
  O       1.844613      2.550298      0.880788
  H       1.093208      2.996383      0.475269
  H       1.462393      1.757326      1.302335
  O      -2.304646      0.391270      1.908287
  H      -2.004247      1.194884      2.348293
  H      -2.062943     -0.326077      2.505888
  O      -0.965850     -2.132220      0.674780
  H      -0.119680     -2.332726      1.096946
  H      -1.055981     -2.782921     -0.034305
  O       3.125394      1.122885     -1.064240
  H       2.685866      1.716320     -0.412452
  H       3.019909      1.560458     -1.915408
  O      -3.332875     -0.552544     -0.541132
  H      -3.714298      0.054674     -1.186288
  H      -3.538977     -0.165956      0.322261
  O      -1.149046     -1.492352     -2.357766
  H      -0.630800     -1.173409     -3.106906
  H      -2.070641     -1.379534     -2.620439
  O       1.478276     -0.979859     -0.925683
  H       2.110616     -0.219514     -1.022379
  H       1.418163     -1.380151     -1.800512
25
Coordinates from ORCA-job pb_aquo8 E -803.842928700333
  Pb     -0.756587      0.067128     -0.351667
  O       0.817097      0.126723      1.801351
  H       1.438283     -0.611374      1.777436
  H       0.294686      0.005473      2.602949
  O       1.845154      2.549900      0.880659
  H       1.093876      2.995509      0.474362
  H       1.462659      1.756960      1.302107
  O      -2.305047      0.390957      1.908154
  H      -2.005606      1.194569      2.348781
  H      -2.063380     -0.326640      2.505546
  O      -0.965773     -2.132080      0.673975
  H      -0.120148     -2.332524      1.097154
  H      -1.055183     -2.782860     -0.035105
  O       3.126620      1.122976     -1.064369
  H       2.687017      1.716124     -0.412363
  H       3.020742      1.560627     -1.915456
  O      -3.333019     -0.552463     -0.541081
  H      -3.714979      0.054554     -1.186074
  H      -3.538432     -0.166126      0.322574
  O      -1.149449     -1.492610     -2.357250
  H      -0.631854     -1.173823     -3.106897
  H      -2.071301     -1.380263     -2.619283
  O       1.478400     -0.978803     -0.925639
  H       2.111152     -0.218726     -1.022351
  H       1.418448     -1.379205     -1.800481
25
Coordinates from ORCA-job pb_aquo8 E -803.842933132897
  Pb     -0.756697      0.067217     -0.351782
  O       0.817005      0.126762      1.801285
  H       1.438330     -0.611212      1.777317
  H       0.294681      0.005472      2.602929
  O       1.845006      2.549800      0.880670
  H       1.093792      2.995047      0.473849
  H       1.462540      1.756820      1.302080
  O      -2.305034      0.391256      1.908119
  H      -2.005641      1.194723      2.349029
  H      -2.063563     -0.326553      2.505335
  O      -0.965637     -2.131914      0.673953
  H      -0.119857     -2.332589      1.096689
  H      -1.055716     -2.782805     -0.034946
  O       3.127176      1.122938     -1.063975
  H       2.687441      1.716108     -0.412072
  H       3.021487      1.560562     -1.915099
  O      -3.333006     -0.552743     -0.540824
  H      -3.715317      0.053853     -1.186001
  H      -3.538362     -0.166158      0.322742
  O      -1.149632     -1.492696     -2.357250
  H      -0.632159     -1.173984     -3.107013
  H      -2.071533     -1.380263     -2.619101
  O       1.478353     -0.978485     -0.925833
  H       2.111305     -0.218501     -1.022297
  H       1.418415     -1.378650     -1.800772
25
Coordinates from ORCA-job pb_aquo8 E -803.842930444243
  Pb     -0.757174      0.067347     -0.352496
  O       0.816919      0.127040      1.800437
  H       1.439013     -0.610281      1.776072
  H       0.294943      0.005166      2.602217
  O       1.843061      2.550457      0.880484
  H       1.091845      2.993408      0.471134
  H       1.461307      1.757048      1.301808
  O      -2.304358      0.393059      1.908140
  H      -2.003449      1.195282      2.350251
  H      -2.064145     -0.326164      2.504185
  O      -0.964811     -2.131175      0.674392
  H      -0.117435     -2.333538      1.093035
  H      -1.059976     -2.782307     -0.033618
  O       3.129512      1.122341     -1.060570
  H       2.688612      1.716112     -0.409985
  H       3.026308      1.559656     -1.912169
  O      -3.333172     -0.553948     -0.539513
  H      -3.716416      0.051070     -1.185607
  H      -3.538489     -0.166154      0.323533
  O      -1.150795     -1.493262     -2.357221
  H      -0.633554     -1.174995     -3.107343
  H      -2.072785     -1.380491     -2.618644
  O       1.478060     -0.977609     -0.927062
  H       2.111839     -0.218019     -1.021614
  H       1.418516     -1.376042     -1.802813
25
Coordinates from ORCA-job pb_aquo8 E -803.842930072696
  Pb     -0.757124      0.067227     -0.352296
  O       0.817171      0.126852      1.800537
  H       1.439078     -0.610636      1.776159
  H       0.295071      0.004956      2.602243
  O       1.843282      2.550571      0.880618
  H       1.091917      2.994049      0.472132
  H       1.461523      1.757175      1.301964
  O      -2.304177      0.392882      1.908178
  H      -2.003238      1.195392      2.349769
  H      -2.063786     -0.325916      2.504679
  O      -0.965133     -2.131349      0.674459
  H      -0.117987     -2.333416      1.093758
  H      -1.059418     -2.782399     -0.033747
  O       3.128536      1.122466     -1.061216
  H       2.687910      1.716217     -0.410451
  H       3.024921      1.559755     -1.912768
  O      -3.333097     -0.553723     -0.539883
  H      -3.715927      0.051707     -1.185838
  H      -3.538703     -0.166289      0.323238
  O      -1.150411     -1.493038     -2.357351
  H      -0.632895     -1.174559     -3.107187
  H      -2.072297     -1.380475     -2.619186
  O       1.478107     -0.978114     -0.926733
  H       2.111564     -0.218361     -1.021739
  H       1.418489     -1.376969     -1.802308
25
Coordinates from ORCA-job pb_aquo8 E -803.842923824451
  Pb     -0.757221      0.067047     -0.352232
  O       0.817488      0.126709      1.800433
  H       1.439317     -0.610845      1.775886
  H       0.295269      0.004570      2.602023
  O       1.842988      2.550905      0.880760
  H       1.091472      2.994486      0.472678
  H       1.461422      1.757425      1.302111
  O      -2.303766      0.393222      1.908203
  H      -2.002296      1.195724      2.349464
  H      -2.063603     -0.325446      2.504944
  O      -0.965251     -2.131454      0.674717
  H      -0.117889     -2.333583      1.093563
  H      -1.059923     -2.782421     -0.033499
  O       3.127978      1.122420     -1.061036
  H       2.687371      1.716388     -0.410470
  H       3.024662      1.559596     -1.912675
  O      -3.333116     -0.553762     -0.539944
  H      -3.715754      0.051789     -1.185906
  H      -3.539018     -0.166422      0.323144
  O      -1.150222     -1.493021     -2.357519
  H      -0.632377     -1.174457     -3.107090
  H      -2.071989     -1.380459     -2.619748
  O       1.478045     -0.978520     -0.926746
  H       2.111315     -0.218627     -1.021660
  H       1.418474     -1.377259     -1.802371
25
Coordinates from ORCA-job pb_aquo8 E -803.842928859725
  Pb     -0.757558      0.066683     -0.352336
  O       0.818180      0.126404      1.799856
  H       1.440173     -0.611019      1.774764
  H       0.295756      0.003358      2.601183
  O       1.841359      2.551980      0.881022
  H       1.089400      2.994843      0.473001
  H       1.460592      1.758122      1.302405
  O      -2.302357      0.394900      1.908223
  H      -1.999095      1.196916      2.349161
  H      -2.063353     -0.323999      2.505160
  O      -0.965138     -2.131405      0.675494
  H      -0.116628     -2.334374      1.091603
  H      -1.062799     -2.782247     -0.032403
  O       3.127542      1.122115     -1.059281
  H       2.686454      1.716762     -0.409706
  H       3.025834      1.558894     -1.911302
  O      -3.333096     -0.554326     -0.539561
  H      -3.715601      0.050851     -1.185947
  H      -3.539840     -0.166819      0.323232
  O      -1.150346     -1.493119     -2.357887
  H      -0.631771     -1.174572     -3.106955
  H      -2.071840     -1.380353     -2.620935
  O       1.477882     -0.979268     -0.927242
  H       2.110985     -0.219178     -1.021221
  H       1.418643     -1.377138     -1.803293
25
Coordinates from ORCA-job pb_aquo8 E -803.842934944507
  Pb     -0.757507      0.066817     -0.352384
  O       0.817963      0.126539      1.799851
  H       1.439912     -0.610914      1.774964
  H       0.295624      0.003844      2.601287
  O       1.841666      2.551781      0.880913
  H       1.089820      2.994572      0.472588
  H       1.460732      1.757958      1.302231
  O      -2.302624      0.394409      1.908157
  H      -1.999950      1.196512      2.349334
  H      -2.063346     -0.324531      2.504936
  O      -0.965103     -2.131405      0.675194
  H      -0.116949     -2.334159      1.092092
  H      -1.062028     -2.782335     -0.032713
  O       3.128035      1.122166     -1.059376
  H       2.686921      1.716683     -0.409677
  H       3.026135      1.559031     -1.911344
  O      -3.333193     -0.554146     -0.539637
  H      -3.715887      0.051074     -1.185875
  H      -3.539615     -0.166729      0.323292
  O      -1.150561     -1.493244     -2.357706
  H      -0.632286     -1.174784     -3.107025
  H      -2.072167     -1.380400     -2.620359
  O       1.477926     -0.978932     -0.927226
  H       2.111168     -0.218961     -1.021224
  H       1.418690     -1.376839     -1.803260
25
Coordinates from ORCA-job pb_aquo8 E -803.842922264752
  Pb     -0.757213      0.067512     -0.352467
  O       0.816954      0.127090      1.800059
  H       1.438639     -0.610573      1.776646
  H       0.295066      0.006656      2.602114
  O       1.843566      2.550670      0.880521
  H       1.092351      2.993664      0.471185
  H       1.461641      1.757126      1.301519
  O      -2.304142      0.391269      1.907633
  H      -2.005072      1.194253      2.349622
  H      -2.063143     -0.327369      2.504067
  O      -0.965116     -2.131678      0.673354
  H      -0.119325     -2.332583      1.095785
  H      -1.056143     -2.782829     -0.035080
  O       3.129929      1.122386     -1.060549
  H       2.688964      1.716201     -0.410038
  H       3.026718      1.559707     -1.912180
  O      -3.333715     -0.552698     -0.540477
  H      -3.717274      0.053474     -1.185329
  H      -3.538315     -0.166379      0.323450
  O      -1.151322     -1.493980     -2.356737
  H      -0.634673     -1.175746     -3.107310
  H      -2.073543     -1.380772     -2.617261
  O       1.478041     -0.977501     -0.927091
  H       2.111883     -0.218066     -1.021509
  H       1.418621     -1.375829     -1.802892
25
Coordinates from ORCA-job pb_aquo8 E -803.842935003305
  Pb     -0.757387      0.067097     -0.352337
  O       0.817633      0.126725      1.799915
  H       1.439409     -0.610870      1.775710
  H       0.295433      0.005075      2.601595
  O       1.842539      2.551295      0.880783
  H       1.090952      2.994235      0.472119
  H       1.461207      1.757561      1.301913
  O      -2.303180      0.392905      1.907847
  H      -2.002348      1.195500      2.349370
  H      -2.063169     -0.325799      2.504608
  O      -0.965196     -2.131587      0.674339
  H      -0.118279     -2.333384      1.094141
  H      -1.059091     -2.782688     -0.033804
  O       3.128792      1.122309     -1.059975
  H       2.687799      1.716560     -0.409924
  H       3.026261      1.559324     -1.911810
  O      -3.333464     -0.553374     -0.540195
  H      -3.716564      0.052396     -1.185681
  H      -3.539112     -0.166644      0.323249
  O      -1.150915     -1.493672     -2.357235
  H      -0.633306     -1.175328     -3.107073
  H      -2.072766     -1.380434     -2.618922
  O       1.478001     -0.978323     -0.927163
  H       2.111446     -0.218523     -1.021314
  H       1.418682     -1.376350     -1.803122
25
Coordinates from ORCA-job pb_aquo8 E -803.842928263987
  Pb     -0.758058      0.066134     -0.352495
  O       0.819100      0.125989      1.798991
  H       1.441504     -0.611065      1.773082
  H       0.296389      0.001506      2.599899
  O       1.838990      2.553250      0.881311
  H       1.086533      2.994895      0.472911
  H       1.459357      1.758889      1.302759
  O      -2.300622      0.397563      1.908240
  H      -1.994979      1.198761      2.349046
  H      -2.063366     -0.321846      2.505273
  O      -0.964745     -2.131166      0.676687
  H      -0.114422     -2.335500      1.088453
  H      -1.067415     -2.782145     -0.030394
  O       3.127498      1.121645     -1.056453
  H       2.685584      1.717206     -0.408319
  H       3.028193      1.557886     -1.909015
  O      -3.333072     -0.555514     -0.538678
  H      -3.715569      0.048697     -1.185981
  H      -3.540852     -0.167163      0.323474
  O      -1.150784     -1.493413     -2.358392
  H      -0.631057     -1.175159     -3.106779
  H      -2.071841     -1.379734     -2.622526
  O       1.477638     -0.979998     -0.928320
  H       2.110643     -0.219629     -1.020559
  H       1.418729     -1.376085     -1.805184
25
Coordinates from ORCA-job pb_aquo8 E -803.842919893266
  Pb     -0.757655      0.066778     -0.352421
  O       0.818176      0.126438      1.799472
  H       1.440213     -0.610937      1.774756
  H       0.295821      0.003884      2.600914
  O       1.841137      2.552035      0.880963
  H       1.089232      2.994326      0.472201
  H       1.460474      1.758019      1.302157
  O      -2.302185      0.394556      1.907914
  H      -1.999808      1.196680      2.349252
  H      -2.063171     -0.324410      2.504771
  O      -0.964987     -2.131449      0.675084
  H      -0.116922     -2.334052      1.092200
  H      -1.061857     -2.782560     -0.032650
  O       3.128560      1.122028     -1.058445
  H       2.687142      1.716792     -0.409185
  H       3.027353      1.558735     -1.910579
  O      -3.333382     -0.554098     -0.539668
  H      -3.716382      0.051111     -1.185737
  H      -3.539736     -0.166862      0.323362
  O      -1.151055     -1.493712     -2.357584
  H      -0.632747     -1.175443     -3.106964
  H      -2.072644     -1.380155     -2.620011
  O       1.477863     -0.978848     -0.927710
  H       2.111211     -0.218869     -1.020974
  H       1.418724     -1.375982     -1.804087
25
Coordinates from ORCA-job pb_aquo8 E -803.842924557336
  Pb     -0.757429      0.067094     -0.352270
  O       0.817834      0.126556      1.799756
  H       1.439620     -0.611030      1.775586
  H       0.295588      0.004913      2.601411
  O       1.842221      2.551362      0.880843
  H       1.090539      2.994076      0.472108
  H       1.461091      1.757495      1.301906
  O      -2.302856      0.393063      1.907718
  H      -2.002280      1.195743      2.349264
  H      -2.063005     -0.325562      2.504651
  O      -0.965194     -2.131610      0.674267
  H      -0.118386     -2.333233      1.094393
  H      -1.058793     -2.782839     -0.033809
  O       3.128852      1.122308     -1.059675
  H       2.687747      1.716631     -0.409777
  H       3.026478      1.559213     -1.911584
  O      -3.333519     -0.553282     -0.540341
  H      -3.716693      0.052562     -1.185708
  H      -3.539285     -0.166778      0.323168
  O      -1.151081     -1.493857     -2.357153
  H      -0.633394     -1.175528     -3.106941
  H      -2.072896     -1.380296     -2.618806
  O       1.478031     -0.978367     -0.927327
  H       2.111448     -0.218515     -1.021227
  H       1.418737     -1.376113     -1.803420
25
Coordinates from ORCA-job pb_aquo8 E -803.842927349393
  Pb     -0.757500      0.066989     -0.352278
  O       0.818010      0.126437      1.799635
  H       1.439897     -0.611068      1.775368
  H       0.295722      0.004559      2.601228
  O       1.841813      2.551580      0.880898
  H       1.090032      2.994127      0.472172
  H       1.460884      1.757630      1.301979
  O      -2.302589      0.393501      1.907736
  H      -2.001621      1.196090      2.349185
  H      -2.062969     -0.325144      2.504738
  O      -0.965150     -2.131591      0.674475
  H      -0.118048     -2.333370      1.093935
  H      -1.059456     -2.782832     -0.033494
  O       3.128744      1.122219     -1.059264
  H       2.687513      1.716686     -0.409594
  H       3.026730      1.559026     -1.911262
  O      -3.333466     -0.553465     -0.540226
  H      -3.716584      0.052245     -1.185751
  H      -3.539457     -0.166838      0.323172
  O      -1.151117     -1.493854     -2.357241
  H      -0.633207     -1.175530     -3.106876
  H      -2.072850     -1.380175     -2.619125
  O       1.477983     -0.978558     -0.927502
  H       2.111359     -0.218643     -1.021149
  H       1.418701     -1.376020     -1.803724
25
Coordinates from ORCA-job pb_aquo8 E -803.842928202741
  Pb     -0.758312      0.065873     -0.352402
  O       0.820224      0.125117      1.798054
  H       1.443080     -0.611581      1.772146
  H       0.297397      0.000105      2.598815
  O       1.836335      2.554476      0.881352
  H       1.083258      2.994400      0.472252
  H       1.458133      1.759414      1.302702
  O      -2.299002      0.399039      1.907946
  H      -1.992767      1.200028      2.348732
  H      -2.062586     -0.320409      2.505278
  O      -0.964616     -2.131254      0.676919
  H      -0.113747     -2.335431      1.087625
  H      -1.068354     -2.782495     -0.029744
  O       3.127894      1.121271     -1.053752
  H       2.685025      1.717597     -0.407033
  H       3.030672      1.556854     -1.906867
  O      -3.333158     -0.555398     -0.538849
  H      -3.715710      0.048913     -1.186017
  H      -3.541743     -0.167523      0.323291
  O      -1.151608     -1.494264     -2.358072
  H      -0.631244     -1.176066     -3.106042
  H      -2.072409     -1.379388     -2.622526
  O       1.477525     -0.980613     -0.929504
  H       2.110502     -0.220040     -1.019960
  H       1.418585     -1.374621     -1.807314
25
Coordinates from ORCA-job pb_aquo8 E -803.842912017417
  Pb     -0.757698      0.066721     -0.352320
  O       0.818600      0.126074      1.799161
  H       1.440723     -0.611233      1.774559
  H       0.296195      0.003515      2.600572
  O       1.840307      2.552335      0.880978
  H       1.088196      2.994073      0.472002
  H       1.460124      1.758068      1.302106
  O      -2.301663      0.394835      1.907750
  H      -1.999566      1.197069      2.349085
  H      -2.062792     -0.323999      2.504826
  O      -0.964975     -2.131539      0.674991
  H      -0.117014     -2.333763      1.092516
  H      -1.061348     -2.782841     -0.032643
  O       3.128718      1.121938     -1.057688
  H       2.687000      1.716887     -0.408825
  H       3.028013      1.558421     -1.909993
  O      -3.333460     -0.553854     -0.539916
  H      -3.716499      0.051570     -1.185759
  H      -3.540037     -0.166991      0.323215
  O      -1.151372     -1.494069     -2.357382
  H      -0.632886     -1.175814     -3.106645
  H      -2.072889     -1.379975     -2.619816
  O       1.477863     -0.979030     -0.928112
  H       2.111188     -0.218969     -1.020812
  H       1.418652     -1.375426     -1.804818
25
Coordinates from ORCA-job pb_aquo8 E -803.842920852368
  Pb     -0.757349      0.067166     -0.352104
  O       0.817977      0.126388      1.799767
  H       1.439617     -0.611319      1.775716
  H       0.295695      0.004956      2.601434
  O       1.842202      2.551269      0.880771
  H       1.090488      2.993896      0.472003
  H       1.461174      1.757336      1.301774
  O      -2.302882      0.392716      1.907615
  H      -2.003049      1.195617      2.349258
  H      -2.062855     -0.325745      2.504671
  O      -0.965339     -2.131743      0.673906
  H      -0.119034     -2.332850      1.095319
  H      -1.057474     -2.783072     -0.034289
  O       3.129016      1.122427     -1.059875
  H       2.687928      1.716669     -0.409893
  H       3.026379      1.559299     -1.911772
  O      -3.333636     -0.552798     -0.540723
  H      -3.716871      0.053471     -1.185653
  H      -3.539313     -0.166797      0.323020
  O      -1.151131     -1.494141     -2.356871
  H      -0.633561     -1.175786     -3.106732
  H      -2.072977     -1.380410     -2.618310
  O       1.478127     -0.978264     -0.927313
  H       2.111520     -0.218397     -1.021231
  H       1.418724     -1.375883     -1.803456
25
Coordinates from ORCA-job pb_aquo8 E -803.842933220092
  Pb     -0.757516      0.066956     -0.352207
  O       0.818316      0.126168      1.799439
  H       1.440172     -0.611360      1.775239
  H       0.295983      0.004332      2.601009
  O       1.841255      2.551754      0.880843
  H       1.089330      2.993908      0.471960
  H       1.460661      1.757635      1.301884
  O      -2.302282      0.393643      1.907651
  H      -2.001634      1.196351      2.349103
  H      -2.062722     -0.324873      2.504830
  O      -0.965158     -2.131690      0.674311
  H      -0.118213     -2.333094      1.094294
  H      -1.058788     -2.783058     -0.033641
  O       3.128934      1.122167     -1.058776
  H       2.687518      1.716731     -0.409335
  H       3.027196      1.558841     -1.910873
  O      -3.333586     -0.553216     -0.540413
  H      -3.716726      0.052749     -1.185687
  H      -3.539677     -0.166931      0.323099
  O      -1.151331     -1.494128     -2.357080
  H      -0.633340     -1.175817     -3.106665
  H      -2.073030     -1.380194     -2.618963
  O       1.477989     -0.978632     -0.927754
  H       2.111362     -0.218675     -1.021022
  H       1.418665     -1.375563     -1.804215
25
Coordinates from ORCA-job pb_aquo8 E -803.842929057868
  Pb     -0.758415      0.065914     -0.352659
  O       0.820160      0.124900      1.797725
  H       1.443366     -0.611497      1.772491
  H       0.297792      0.000690      2.598901
  O       1.835873      2.554357      0.881182
  H       1.082851      2.993594      0.471234
  H       1.457744      1.759198      1.302450
  O      -2.299226      0.398830      1.907882
  H      -1.993755      1.200214      2.348487
  H      -2.062107     -0.320302      2.505309
  O      -0.964304     -2.131246      0.676618
  H      -0.113675     -2.334550      1.088225
  H      -1.066716     -2.782801     -0.029934
  O       3.128561      1.120810     -1.052789
  H       2.685315      1.717118     -0.406315
  H       3.031886      1.556437     -1.905957
  O      -3.333231     -0.555497     -0.538628
  H      -3.715913      0.048607     -1.185940
  H      -3.541580     -0.167385      0.323501
  O      -1.152189     -1.494134     -2.358088
  H      -0.632106     -1.175866     -3.106226
  H      -2.073127     -1.379177     -2.622154
  O       1.477290     -0.980467     -0.930107
  H       2.110591     -0.220061     -1.019907
  H       1.418291     -1.373683     -1.808268
25
Coordinates from ORCA-job pb_aquo8 E -803.842916925952
  Pb     -0.757759      0.066644     -0.352343
  O       0.818861      0.125760      1.798919
  H       1.441139     -0.611419      1.774442
  H       0.296543      0.003247      2.600393
  O       1.839545      2.552531      0.880898
  H       1.087301      2.993731      0.471588
  H       1.459720      1.758097      1.302018
  O      -2.301386      0.395196      1.907728
  H      -1.999402      1.197532      2.348959
  H      -2.062515     -0.323502      2.504968
  O      -0.964893     -2.131584      0.674957
  H      -0.116879     -2.333495      1.092543
  H      -1.061018     -2.783025     -0.032586
  O       3.128939      1.121726     -1.056912
  H       2.686914      1.716802     -0.408386
  H       3.028740      1.558081     -1.909340
  O      -3.333478     -0.553878     -0.539856
  H      -3.716505      0.051532     -1.185725
  H      -3.540209     -0.167031      0.323244
  O      -1.151636     -1.494154     -2.357360
  H      -0.633032     -1.175872     -3.106531
  H      -2.073112     -1.379843     -2.619852
  O       1.477791     -0.979151     -0.928517
  H       2.111170     -0.219072     -1.020682
  H       1.418534     -1.374848     -1.805537
25
Coordinates from ORCA-job pb_aquo8 E -803.842913091450
  Pb     -0.757031      0.067394     -0.351819
  O       0.817801      0.126347      1.800231
  H       1.439195     -0.611559      1.776329
  H       0.295524      0.005304      2.601963
  O       1.842957      2.550652      0.880596
  H       1.091345      2.993653      0.472031
  H       1.461635      1.756900      1.301661
  O      -2.303469      0.391708      1.907526
  H      -2.004916      1.194965      2.349381
  H      -2.062879     -0.326545      2.504602
  O      -0.965568     -2.131852      0.673395
  H      -0.120199     -2.332296      1.097029
  H      -1.055272     -2.783249     -0.035079
  O       3.128922      1.122791     -1.061266
  H       2.688161      1.716566     -0.410613
  H       3.025053      1.559868     -1.912918
  O      -3.333606     -0.552046     -0.541322
  H      -3.716762      0.054799     -1.185752
  H      -3.538924     -0.166561      0.322735
  O      -1.150880     -1.494144     -2.356508
  H      -0.633693     -1.175725     -3.106609
  H      -2.072855     -1.380457     -2.617488
  O       1.478398     -0.978036     -0.926845
  H       2.111689     -0.218180     -1.021545
  H       1.418751     -1.376292     -1.802681
25
Coordinates from ORCA-job pb_aquo8 E -803.842927502775
  Pb     -0.757364      0.067020     -0.352058
  O       0.818347      0.126012      1.799599
  H       1.440169     -0.611546      1.775460
  H       0.296069      0.004305      2.601227
  O       1.841225      2.551564      0.880716
  H       1.089289      2.993653      0.471781
  H       1.460667      1.757468      1.301810
  O      -2.302457      0.393367      1.907634
  H      -2.002345      1.196242      2.349143
  H      -2.062627     -0.325035      2.504840
  O      -0.965264     -2.131767      0.674117
  H      -0.118686     -2.332799      1.095025
  H      -1.057807     -2.783196     -0.033931
  O       3.128917      1.122256     -1.059151
  H       2.687523      1.716654     -0.409537
  H       3.026812      1.558972     -1.911185
  O      -3.333524     -0.552875     -0.540645
  H      -3.716580      0.053329     -1.185745
  H      -3.539538     -0.166774      0.322967
  O      -1.151253     -1.494123     -2.356916
  H      -0.633375     -1.175746     -3.106552
  H      -2.072989     -1.380144     -2.618640
  O       1.478111     -0.978618     -0.927679
  H       2.111434     -0.218642     -1.021134
  H       1.418621     -1.375569     -1.804116
25
Coordinates from ORCA-job pb_aquo8 E -803.842929901999
  Pb     -0.758134      0.066179     -0.352640
  O       0.819716      0.125095      1.797985
  H       1.442587     -0.611589      1.773139
  H       0.297481      0.001701      2.599373
  O       1.836816      2.553772      0.880924
  H       1.084058      2.993387      0.470878
  H       1.458202      1.758822      1.302162
  O      -2.299782      0.397564      1.907856
  H      -1.995912      1.199408      2.348711
  H      -2.061997     -0.321318      2.505311
  O      -0.964522     -2.131383      0.675858
  H      -0.115013     -2.334037      1.090066
  H      -1.064223     -2.782956     -0.031074
  O       3.129006      1.121025     -1.053815
  H       2.685979      1.716885     -0.406744
  H       3.031234      1.556895     -1.906750
  O      -3.333321     -0.554930     -0.538983
  H      -3.716141      0.049656     -1.185750
  H      -3.541080     -0.167316      0.323510
  O      -1.152205     -1.494133     -2.357866
  H      -0.632707     -1.175896     -3.106431
  H      -2.073355     -1.379396     -2.621301
  O       1.477443     -0.979951     -0.929695
  H       2.110880     -0.219723     -1.020103
  H       1.418368     -1.373756     -1.807587
25
Coordinates from ORCA-job pb_aquo8 E -803.842921948855
  Pb     -0.757647      0.066684     -0.352286
  O       0.818885      0.125653      1.798977
  H       1.441112     -0.611568      1.774579
  H       0.296631      0.003314      2.600521
  O       1.839430      2.552435      0.880751
  H       1.087170      2.993486      0.471307
  H       1.459655      1.758004      1.301917
  O      -2.301416      0.394975      1.907731
  H      -1.999897      1.197471      2.348987
  H      -2.062356     -0.323603      2.505036
  O      -0.964977     -2.131655      0.674765
  H      -0.117287     -2.333263      1.093159
  H      -1.060180     -2.783138     -0.032869
  O       3.129034      1.121748     -1.057009
  H       2.686959      1.716712     -0.408411
  H       3.028616      1.558114     -1.909409
  O      -3.333455     -0.553638     -0.539992
  H      -3.716417      0.051969     -1.185713
  H      -3.540115     -0.166961      0.323198
  O      -1.151665     -1.494138     -2.357281
  H      -0.633167     -1.175819     -3.106510
  H      -2.073179     -1.379852     -2.619653
  O       1.477869     -0.979118     -0.928499
  H       2.111254     -0.219051     -1.020720
  H       1.418520     -1.374757     -1.805541
25
Coordinates from ORCA-job pb_aquo8 E -803.842918849929
  Pb     -0.757125      0.067194     -0.351852
  O       0.818176      0.126036      1.799943
  H       1.439784     -0.611696      1.775924
  H       0.295880      0.004634      2.601607
  O       1.841847      2.551097      0.880544
  H       1.089997      2.993518      0.471799
  H       1.461027      1.757149      1.301688
  O      -2.302916      0.392559      1.907618
  H      -2.003754      1.195710      2.349260
  H      -2.062657     -0.325674      2.504851
  O      -0.965472     -2.131870      0.673698
  H      -0.119643     -2.332453      1.096342
  H      -1.056147     -2.783306     -0.034605
  O       3.128881      1.122539     -1.060217
  H       2.687728      1.716566     -0.410082
  H       3.025845      1.559434     -1.912055
  O      -3.333517     -0.552293     -0.541042
  H      -3.716540      0.054350     -1.185746
  H      -3.539213     -0.166593      0.322826
  O      -1.151020     -1.494104     -2.356688
  H      -0.633454     -1.175718     -3.106537
  H      -2.072865     -1.380283     -2.618090
  O       1.478307     -0.978424     -0.927298
  H       2.111566     -0.218472     -1.021365
  H       1.418661     -1.375896     -1.803491
25
Coordinates from ORCA-job pb_aquo8 E -803.842932665658
  Pb     -0.757404      0.066897     -0.352085
  O       0.818575      0.125811      1.799416
  H       1.440501     -0.611660      1.775220
  H       0.296307      0.003949      2.601025
  O       1.840484      2.551843      0.880612
  H       1.088409      2.993486      0.471457
  H       1.460252      1.757631      1.301774
  O      -2.302116      0.393810      1.907695
  H      -2.001745      1.196650      2.349096
  H      -2.062451     -0.324568      2.504992
  O      -0.965223     -2.131796      0.674240
  H      -0.118448     -2.332846      1.094748
  H      -1.058133     -2.783257     -0.033729
  O       3.129001      1.122083     -1.058436
  H       2.687329      1.716629     -0.409158
  H       3.027411      1.558683     -1.910587
  O      -3.333497     -0.552968     -0.540475
  H      -3.716458      0.053171     -1.185695
  H      -3.539679     -0.166773      0.323049
  O      -1.151394     -1.494126     -2.357011
  H      -0.633329     -1.175780     -3.106530
  H      -2.073063     -1.380062     -2.618936
  O       1.478071     -0.978810     -0.927980
  H       2.111403     -0.218789     -1.020999
  H       1.418574     -1.375206     -1.804669
25
Coordinates from ORCA-job pb_aquo8 E -803.842929726763
  Pb     -0.758297      0.065846     -0.352807
  O       0.820183      0.124741      1.797595
  H       1.443516     -0.611549      1.772500
  H       0.297969      0.000697      2.598884
  O       1.835018      2.554553      0.880774
  H       1.081978      2.993107      0.470125
  H       1.457173      1.759348      1.302193
  O      -2.299025      0.398927      1.907951
  H      -1.993865      1.200370      2.348660
  H      -2.061835     -0.320196      2.505363
  O      -0.964174     -2.131370      0.676462
  H      -0.113665     -2.334496      1.088396
  H      -1.066194     -2.782960     -0.030118
  O       3.129256      1.120498     -1.051909
  H       2.685608      1.716892     -0.405786
  H       3.033077      1.556068     -1.905167
  O      -3.333281     -0.555448     -0.538424
  H      -3.716052      0.048609     -1.185732
  H      -3.541465     -0.167245      0.323705
  O      -1.152634     -1.494116     -2.358111
  H      -0.632654     -1.176011     -3.106397
  H      -2.073609     -1.379048     -2.622023
  O       1.477279     -0.980361     -0.930462
  H       2.110765     -0.220037     -1.019668
  H       1.418304     -1.372813     -1.808969
25
Coordinates from ORCA-job pb_aquo8 E -803.842929863085
  Pb     -0.757671      0.066565     -0.352319
  O       0.819061      0.125488      1.798860
  H       1.441415     -0.611625      1.774402
  H       0.296817      0.002982      2.600382
  O       1.838742      2.552690      0.880613
  H       1.086369      2.993314      0.470922
  H       1.459259      1.758172      1.301866
  O      -2.301181      0.395353      1.907793
  H      -1.999380      1.197783      2.348980
  H      -2.062236     -0.323247      2.505117
  O      -0.964895     -2.131690      0.674899
  H      -0.116997     -2.333335      1.092852
  H      -1.060506     -2.783189     -0.032662
  O       3.129161      1.121569     -1.056359
  H       2.686836      1.716681     -0.408079
  H       3.029257      1.557842     -1.908864
  O      -3.333434     -0.553702     -0.539819
  H      -3.716341      0.051806     -1.185669
  H      -3.540194     -0.166892      0.323286
  O      -1.151814     -1.494116     -2.357360
  H      -0.633180     -1.175857     -3.106520
  H      -2.073280     -1.379753     -2.619876
  O       1.477840     -0.979278     -0.928777
  H       2.111238     -0.219172     -1.020578
  H       1.418490     -1.374387     -1.806058
25
Coordinates from ORCA-job pb_aquo8 E -803.842929626326
  Pb     -0.757621      0.066619     -0.352284
  O       0.819009      0.125504      1.798950
  H       1.441301     -0.611659      1.774499
  H       0.296776      0.003070      2.600493
  O       1.838864      2.552572      0.880561
  H       1.086512      2.993223      0.470856
  H       1.459325      1.758087      1.301829
  O      -2.301276      0.395173      1.907803
  H      -1.999705      1.197664      2.349034
  H      -2.062240     -0.323397      2.505128
  O      -0.964959     -2.131717      0.674780
  H      -0.117239     -2.333264      1.093148
  H      -1.060122     -2.783206     -0.032855
  O       3.129191      1.121628     -1.056592
  H       2.686908      1.716649     -0.408193
  H       3.029031      1.557922     -1.909059
  O      -3.333412     -0.553561     -0.539899
  H      -3.716330      0.052041     -1.185653
  H      -3.540094     -0.166856      0.323271
  O      -1.151751     -1.494105     -2.357315
  H      -0.633219     -1.175819     -3.106535
  H      -2.073252     -1.379845     -2.619740
  O       1.477890     -0.979187     -0.928675
  H       2.111293     -0.219101     -1.020624
  H       1.418497     -1.374433     -1.805894
25
Coordinates from ORCA-job pb_aquo8 E -803.842929842859
  Pb     -0.756422      0.067585     -0.351432
  O       0.818109      0.125795      1.800763
  H       1.439373     -0.612179      1.776506
  H       0.295945      0.004595      2.602535
  O       1.841042      2.550275      0.879435
  H       1.089046      2.991473      0.469567
  H       1.460497      1.756483      1.301161
  O      -2.302860      0.391497      1.907827
  H      -2.005777      1.195118      2.349962
  H      -2.062164     -0.326514      2.505137
  O      -0.966202     -2.132023      0.672709
  H      -0.122035     -2.331860      1.099141
  H      -1.052908     -2.783415     -0.036213
  O       3.129693      1.122900     -1.061095
  H       2.688121      1.716042     -0.410402
  H       3.024389      1.559574     -1.912801
  O      -3.333170     -0.550858     -0.541570
  H      -3.715946      0.056768     -1.185489
  H      -3.538422     -0.166061      0.322799
  O      -1.150611     -1.493976     -2.356414
  H      -0.633807     -1.175387     -3.106705
  H      -2.072716     -1.380768     -2.617072
  O       1.479069     -0.977706     -0.926797
  H       2.112448     -0.217922     -1.021673
  H       1.418685     -1.375431     -1.802845
25
Coordinates from ORCA-job pb_aquo8 E -803.842929612135
  Pb     -0.757338      0.066779     -0.352115
  O       0.818924      0.125461      1.799321
  H       1.441080     -0.611806      1.774838
  H       0.296739      0.003173      2.600917
  O       1.838776      2.552209      0.880163
  H       1.086416      2.992556      0.470128
  H       1.459251      1.757819      1.301625
  O      -2.301420      0.394604      1.907842
  H      -2.000698      1.197295      2.349272
  H      -2.062112     -0.323881      2.505155
  O      -0.965194     -2.131805      0.674395
  H      -0.118155     -2.333005      1.094318
  H      -1.058704     -2.783262     -0.033502
  O       3.129452      1.121799     -1.057114
  H       2.687106      1.716486     -0.408436
  H       3.028395      1.558057     -1.909505
  O      -3.333314     -0.552959     -0.540155
  H      -3.716175      0.053037     -1.185571
  H      -3.539757     -0.166612      0.323233
  O      -1.151593     -1.494036     -2.357175
  H      -0.633407     -1.175686     -3.106609
  H      -2.073218     -1.379994     -2.619253
  O       1.478179     -0.978935     -0.928431
  H       2.111602     -0.218904     -1.020763
  H       1.418538     -1.374385     -1.805543
25
Coordinates from ORCA-job pb_aquo8 E -803.842928228386
  Pb     -0.757347      0.066699     -0.352174
  O       0.819070      0.125331      1.799246
  H       1.441347     -0.611833      1.774658
  H       0.296897      0.002846      2.600818
  O       1.838084      2.552412      0.880022
  H       1.085606      2.992259      0.469667
  H       1.458849      1.757939      1.301587
  O      -2.301129      0.395007      1.907878
  H      -2.000133      1.197601      2.349301
  H      -2.062016     -0.323546      2.505193
  O      -0.965081     -2.131791      0.674536
  H      -0.117810     -2.333085      1.093948
  H      -1.059103     -2.783249     -0.033288
  O       3.129589      1.121644     -1.056460
  H       2.686962      1.716460     -0.408098
  H       3.028903      1.557740     -1.908977
  O      -3.333256     -0.553039     -0.539985
  H      -3.716063      0.052854     -1.185532
  H      -3.539833     -0.166579      0.323317
  O      -1.151728     -1.493980     -2.357253
  H      -0.633436     -1.175651     -3.106622
  H      -2.073316     -1.379893     -2.619444
  O       1.478168     -0.979057     -0.928678
  H       2.111619     -0.219009     -1.020639
  H       1.418533     -1.374075     -1.805986
25
Coordinates from ORCA-job pb_aquo8 E -803.842928840128
  Pb     -0.757389      0.066589     -0.352231
  O       0.819270      0.125216      1.799091
  H       1.441693     -0.611824      1.774383
  H       0.297114      0.002490      2.600639
  O       1.837288      2.552717      0.879882
  H       1.084686      2.992013      0.469176
  H       1.458393      1.758143      1.301549
  O      -2.300791      0.395466      1.907936
  H      -1.999368      1.197923      2.349322
  H      -2.061907     -0.323179      2.505231
  O      -0.965006     -2.131785      0.674714
  H      -0.117438     -2.333253      1.093438
  H      -1.059754     -2.783240     -0.033014
  O       3.129792      1.121463     -1.055646
  H       2.686826      1.716443     -0.407670
  H       3.029626      1.557386     -1.908314
  O      -3.333238     -0.553147     -0.539771
  H      -3.716041      0.052589     -1.185466
  H      -3.539968     -0.166546      0.323427
  O      -1.151879     -1.493978     -2.357348
  H      -0.633450     -1.175685     -3.106636
  H      -2.073415     -1.379808     -2.619676
  O       1.478158     -0.979187     -0.928977
  H       2.111656     -0.219125     -1.020483
  H       1.418520     -1.373675     -1.806524
25
Coordinates from ORCA-job pb_aquo8 E -803.842933315634
  Pb     -0.757345      0.066430     -0.352319
  O       0.819588      0.124916      1.798996
  H       1.442309     -0.611870      1.774121
  H       0.297552      0.001857      2.600566
  O       1.835393      2.553207      0.879196
  H       1.082540      2.990968      0.467311
  H       1.457258      1.758465      1.301213
  O      -2.300271      0.396040      1.908141
  H      -1.998553      1.198378      2.349538
  H      -2.061552     -0.322707      2.505367
  O      -0.964913     -2.131874      0.674740
  H      -0.117224     -2.333424      1.093166
  H      -1.059955     -2.783303     -0.032964
  O       3.130629      1.121059     -1.053964
  H       2.686847      1.716290     -0.406789
  H       3.031258      1.556533     -1.906956
  O      -3.333188     -0.553004     -0.539299
  H      -3.716001      0.052569     -1.185142
  H      -3.539936     -0.166199      0.323809
  O      -1.152218     -1.493845     -2.357507
  H      -0.633807     -1.175657     -3.106855
  H      -2.073761     -1.379808     -2.619887
  O       1.478257     -0.979275     -0.929602
  H       2.111935     -0.219238     -1.020137
  H       1.418534     -1.372504     -1.807709
25
Coordinates from ORCA-job pb_aquo8 E -803.842940250942
  Pb     -0.756809      0.065952     -0.352394
  O       0.821021      0.123482      1.798682
  H       1.444833     -0.612349      1.772672
  H       0.299610     -0.001175      2.600416
  O       1.827119      2.555186      0.876288
  H       1.073085      2.986421      0.459684
  H       1.452342      1.759739      1.299901
  O      -2.297786      0.398319      1.908909
  H      -1.994625      1.199878      2.350733
  H      -2.059885     -0.321196      2.505549
  O      -0.964738     -2.132110      0.675005
  H      -0.116684     -2.334222      1.092401
  H      -1.060976     -2.783395     -0.032665
  O       3.133326      1.119720     -1.047662
  H       2.686202      1.715866     -0.403651
  H       3.037018      1.553412     -1.901924
  O      -3.332785     -0.551804     -0.537888
  H      -3.715121      0.053529     -1.184246
  H      -3.539697     -0.164432      0.324927
  O      -1.153121     -1.493282     -2.357879
  H      -0.634942     -1.175332     -3.107496
  H      -2.074728     -1.379637     -2.620180
  O       1.478859     -0.979972     -0.931659
  H       2.112971     -0.219905     -1.018720
  H       1.418885     -1.368687     -1.811770
25
Coordinates from ORCA-job pb_aquo8 E -803.842927808055
  Pb     -0.756846      0.066013     -0.352344
  O       0.820988      0.123492      1.798703
  H       1.444738     -0.612389      1.772563
  H       0.299595     -0.001233      2.600426
  O       1.827532      2.555069      0.876509
  H       1.073552      2.986719      0.460230
  H       1.452589      1.759665      1.300054
  O      -2.297890      0.398300      1.908839
  H      -1.994451      1.199752      2.350669
  H      -2.059995     -0.321295      2.505375
  O      -0.964736     -2.132040      0.675143
  H      -0.116578     -2.334246      1.092289
  H      -1.061291     -2.783330     -0.032482
  O       3.132824      1.119879     -1.048174
  H       2.685975      1.715988     -0.403963
  H       3.036553      1.553782     -1.902331
  O      -3.332792     -0.551821     -0.537994
  H      -3.715046      0.053496     -1.184415
  H      -3.539742     -0.164360      0.324765
  O      -1.152849     -1.493252     -2.357869
  H      -0.634734     -1.175235     -3.107500
  H      -2.074486     -1.379688     -2.620132
  O       1.478752     -0.980079     -0.931368
  H       2.112717     -0.219919     -1.018689
  H       1.418999     -1.369263     -1.811272
25
Coordinates from ORCA-job pb_aquo8 E -803.842930372061
  Pb     -0.757120      0.066804     -0.351704
  O       0.819854      0.124407      1.799337
  H       1.442425     -0.612478      1.772650
  H       0.298111     -0.000189      2.600790
  O       1.835518      2.552806      0.879662
  H       1.082610      2.991599      0.468947
  H       1.457340      1.758258      1.301953
  O      -2.300233      0.396611      1.907910
  H      -1.995689      1.197724      2.349623
  H      -2.061953     -0.323206      2.503991
  O      -0.964957     -2.131359      0.675947
  H      -0.116564     -2.334107      1.092449
  H      -1.062802     -2.782735     -0.031460
  O       3.127150      1.122091     -1.056498
  H       2.684524      1.717157     -0.408563
  H       3.028682      1.558750     -1.908988
  O      -3.332946     -0.552313     -0.539740
  H      -3.714752      0.053131     -1.186307
  H      -3.539899     -0.164474      0.322796
  O      -1.149914     -1.493166     -2.357510
  H      -0.632179     -1.174638     -3.107180
  H      -2.071728     -1.379956     -2.619489
  O       1.477840     -0.980591     -0.927594
  H       2.110269     -0.219704     -1.019462
  H       1.419793     -1.376418     -1.804526
25
Coordinates from ORCA-job pb_aquo8 E -803.842927775477
  Pb     -0.756773      0.066220     -0.352135
  O       0.820751      0.123673      1.798937
  H       1.444247     -0.612418      1.772523
  H       0.299261     -0.001218      2.600570
  O       1.829034      2.554601      0.877069
  H       1.075200      2.987627      0.461955
  H       1.453486      1.759389      1.300442
  O      -2.298281      0.397910      1.908699
  H      -1.994530      1.199243      2.350535
  H      -2.060357     -0.321806      2.505093
  O      -0.964898     -2.131863      0.675278
  H      -0.116792     -2.334310      1.092451
  H      -1.061673     -2.783123     -0.032351
  O       3.131517      1.120433     -1.050095
  H       2.685500      1.716236     -0.405043
  H       3.034565      1.554889     -1.903893
  O      -3.332714     -0.551744     -0.538409
  H      -3.714834      0.053615     -1.184869
  H      -3.539674     -0.164230      0.324316
  O      -1.152074     -1.493145     -2.357780
  H      -0.634093     -1.175007     -3.107448
  H      -2.073756     -1.379718     -2.619940
  O       1.478707     -0.980247     -0.930395
  H       2.112287     -0.219925     -1.018894
  H       1.419271     -1.371078     -1.809582
25
Coordinates from ORCA-job pb_aquo8 E -803.842932269117
  Pb     -0.756694      0.066202     -0.352150
  O       0.820729      0.123728      1.798997
  H       1.444207     -0.612371      1.772567
  H       0.299214     -0.001203      2.600609
  O       1.828905      2.554643      0.876902
  H       1.075054      2.987513      0.461656
  H       1.453391      1.759462      1.300359
  O      -2.298306      0.397766      1.908756
  H      -1.994618      1.199118      2.350598
  H      -2.060329     -0.321952      2.505130
  O      -0.964934     -2.131908      0.675190
  H      -0.116953     -2.334336      1.092620
  H      -1.061462     -2.783146     -0.032495
  O       3.131679      1.120404     -1.050012
  H       2.685564      1.716201     -0.405010
  H       3.034644      1.554778     -1.903845
  O      -3.332694     -0.551614     -0.538374
  H      -3.714855      0.053762     -1.184791
  H      -3.539536     -0.164116      0.324390
  O      -1.152124     -1.493119     -2.357797
  H      -0.634184     -1.175025     -3.107512
  H      -2.073819     -1.379672     -2.619890
  O       1.478797     -0.980207     -0.930390
  H       2.112409     -0.219904     -1.018876
  H       1.419291     -1.370999     -1.809596
25
Coordinates from ORCA-job pb_aquo8 E -803.842931249144
  Pb     -0.756550      0.066223     -0.352128
  O       0.820805      0.123645      1.799087
  H       1.444356     -0.612388      1.772620
  H       0.299320     -0.001364      2.600709
  O       1.828218      2.554730      0.876507
  H       1.074277      2.986940      0.460739
  H       1.452977      1.759534      1.300163
  O      -2.298189      0.397676      1.908829
  H      -1.994658      1.199039      2.350757
  H      -2.060177     -0.322078      2.505150
  O      -0.964996     -2.131980      0.675005
  H      -0.117245     -2.334309      1.092947
  H      -1.060962     -2.783169     -0.032802
  O       3.132075      1.120323     -1.049590
  H       2.685630      1.716121     -0.404804
  H       3.035026      1.554490     -1.903534
  O      -3.332656     -0.551266     -0.538360
  H      -3.714847      0.054241     -1.184636
  H      -3.539355     -0.163896      0.324499
  O      -1.152211     -1.493117     -2.357736
  H      -0.634419     -1.175039     -3.107560
  H      -2.073958     -1.379721     -2.619657
  O       1.478957     -0.980139     -0.930507
  H       2.112654     -0.219879     -1.018813
  H       1.419305     -1.370610     -1.809852
