25
Coordinates from ORCA-job pb_aquo8 E -803.842931249144
  Pb         -0.75654960747312      0.06622286909623     -0.35212825881940
  O           0.82080492416470      0.12364494965459      1.79908688011825
  H           1.44435567267089     -0.61238828782015      1.77262047105906
  H           0.29932018386721     -0.00136425015779      2.60070908905960
  O           1.82821849657664      2.55473038695308      0.87650677470547
  H           1.07427656374502      2.98693952497384      0.46073918811865
  H           1.45297689470869      1.75953407885624      1.30016318295925
  O          -2.29818896191561      0.39767577159989      1.90882911342529
  H          -1.99465838246761      1.19903879212104      2.35075663144246
  H          -2.06017694684330     -0.32207751396853      2.50515023456139
  O          -0.96499616832765     -2.13197986952179      0.67500483758450
  H          -0.11724465982536     -2.33430854066770      1.09294651211715
  H          -1.06096189351469     -2.78316870767107     -0.03280171639610
  O           3.13207532631009      1.12032325243991     -1.04959027700692
  H           2.68562951739479      1.71612068443798     -0.40480446445149
  H           3.03502567141742      1.55448967048799     -1.90353378108570
  O          -3.33265602024311     -0.55126639641952     -0.53836019504564
  H          -3.71484693753565      0.05424062874602     -1.18463600394135
  H          -3.53935539185136     -0.16389633522373      0.32449927491103
  O          -1.15221080053571     -1.49311712648640     -2.35773562229591
  H          -0.63441855391268     -1.17503918544357     -3.10755958235348
  H          -2.07395819442719     -1.37972108582435     -2.61965721977568
  O           1.47895748587250     -0.98013904649415     -0.93050682394706
  H           2.11265352372097     -0.21987918749004     -1.01881346781740
  H           1.41930472842418     -1.37061000617803     -1.80985197712597
