21
charge=+0 | mult=1 | uhf=0 | uks=false | species=lig_P0_LH2 | label=LH2 (methyl gallate, neutral) | formula=C8H8O5 | role=ligand | protonation=P0 | metal=none | preopt=GFN2-xTB/ALPB(water)/opt-tight | E_xtb_Eh=-41.579497289275 | preopt_is_not_a_report_quantity=true | builder=build_structures.py+run_xtb_preopt.py
C            3.86966405337876       -0.72770399916366        0.68976086992205
O            2.59331255381072       -0.15193583465719        0.41093890119723
C            1.54968504969433       -0.98091744670349        0.37829345467467
O            1.66097738536345       -2.18005931773242        0.57473180437971
C            0.27629419980177       -0.30522773535118        0.08626399443124
C           -0.88023124174069       -1.08260569623223        0.03025852805922
C           -2.09834842855527       -0.48922165032230       -0.24037127095785
O           -3.27494917003494       -1.17330936222031       -0.31386758230267
C           -2.16714814750245        0.89163323402082       -0.45737534697901
O           -3.34640016502383        1.51394267364017       -0.72655062513246
C           -1.00362520478412        1.66944328826965       -0.40059640101275
O           -1.06575377853125        3.00561039016982       -0.61028827699142
C            0.21483724623142        1.06852727400954       -0.12888153492845
H            3.85614749836683       -1.21087451094162        1.66775508311040
H            4.57261944439376        0.09905543471432        0.67159233310554
H            4.11796483578201       -1.47156174753933       -0.06862101053928
H           -0.79715208582968       -2.14469079955921        0.20170912376724
H           -3.13255791310860       -2.11767460470432       -0.15722455112754
H           -4.05916026280497        0.85401134033243       -0.73530343402962
H           -1.98885857504552        3.25799466528900       -0.78444371951860
H            1.10268270613827        1.67556439468152       -0.08778034912764
