33
Coordinates from ORCA-job cu_P1_cplx E -2630.529828527658
  Cu         -4.88037767731679     -0.10606131640211     -0.48309289936066
  C           4.06944930899011     -0.41271116165076      0.15316070128443
  O           2.72642114518150      0.04739377596423      0.00368443521652
  C           1.76638975585050     -0.83824875331575      0.28284513170257
  O           2.01711837334849     -1.97405764159812      0.64642578871112
  C           0.41305818326069     -0.30148552502074      0.10428871352352
  C          -0.66782598868591     -1.14511153283406      0.36378951916816
  C          -1.95484465511287     -0.67869546117979      0.20478816417327
  O          -3.06763162304999     -1.43823017295605      0.44046844937904
  C          -2.21087588145068      0.63432414170971     -0.21843129354752
  O          -3.42091268024715      1.12136360631166     -0.38872241241146
  C          -1.10290791158412      1.46240514058000     -0.47196026044600
  O          -1.34940641935972      2.73796971961907     -0.88938506077791
  C           0.18996940900966      1.01269742323601     -0.31479644243844
  H           4.26088582626803     -0.70831845821720      1.18534713218065
  H           4.70117233956743      0.43006756603317     -0.11746702563112
  H           4.26246252029489     -1.25475523354822     -0.51250050690637
  H          -0.50006853629036     -2.16507147869291      0.68993749388559
  H          -2.82391111453077     -2.35579869353813      0.61276621439433
  H          -2.31445833119079      2.82453714099584     -0.94115101957968
  H           1.01502632265938      1.68110578024436     -0.52346240018968
  O          -6.30615824363584     -1.50078826581449     -0.55262396073222
  H          -7.00848457586830     -1.30996039119479      0.08264257950745
  H          -6.73888907525031     -1.54239096513138     -1.41559438241944
  O          -6.32670283813250      1.51944266960294     -1.17789759061756
  H          -5.77666295515074      2.27264069072675     -1.42368029520999
  H          -6.82045733450654      1.82164719129678     -0.40634639379190
  O          -5.42142296079119      0.19611582413909      1.47725223209729
  H          -5.61182410473605      1.13439786076230      1.60784470023505
  H          -4.64832177469508      0.01576120627673      2.02813597715757
  O          -4.31636950622743     -0.67339878216943     -2.36334409274356
  H          -5.06826106544621     -0.72555376303990     -2.96754762031904
  H          -3.73825700117109      0.00839558880521     -2.73035017549400
