33
Coordinates from ORCA-job cu_P1_cplx E -2630.519185302796
  Cu     -4.793201      0.084048     -0.590076
  C       4.016172     -0.513413     -0.027073
  O       2.684232     -0.008943     -0.089134
  C       1.698835     -0.856850      0.220276
  O       1.908514     -2.014045      0.549162
  C       0.363601     -0.255070      0.126113
  C      -0.743340     -1.054864      0.438215
  C      -2.015765     -0.540615      0.372072
  O      -3.134262     -1.266813      0.632054
  C      -2.230222      0.810915     -0.024476
  O      -3.401429      1.346561     -0.080863
  C      -1.082825      1.596290     -0.356000
  O      -1.282439      2.879399     -0.716125
  C       0.189422      1.071064     -0.269693
  H       4.211094     -0.941159      0.957624
  H       4.662750      0.337499     -0.217490
  H       4.158443     -1.287628     -0.782633
  H      -0.559324     -2.078657      0.727878
  H      -2.907165     -2.199644      0.774326
  H      -2.247490      3.039861     -0.716894
  H       1.037811      1.686262     -0.517698
  O      -6.228350     -1.381584     -0.886393
  H      -6.614166     -1.607644     -0.031542
  H      -6.926257     -0.959397     -1.404532
  O      -6.405706      1.451979     -1.275653
  H      -6.105399      2.270661     -1.684089
  H      -6.933390      1.697985     -0.506520
  O      -5.608352      0.247091      1.480810
  H      -5.330867      1.110314      1.809097
  H      -5.129701     -0.406750      2.003599
  O      -3.808352     -0.696748     -2.318095
  H      -4.151943     -1.584826     -2.485149
  H      -3.944008     -0.185651     -3.126076
33
Coordinates from ORCA-job cu_P1_cplx E -2630.522021123782
  Cu     -4.796304      0.080046     -0.587844
  C       4.014922     -0.521200     -0.019171
  O       2.685942     -0.005874     -0.089654
  C       1.702757     -0.852874      0.219768
  O       1.917954     -2.009502      0.540669
  C       0.367035     -0.253018      0.125850
  C      -0.735420     -1.053201      0.436224
  C      -2.007331     -0.534804      0.365917
  O      -3.131227     -1.260509      0.629046
  C      -2.226558      0.806730     -0.022098
  O      -3.413768      1.342642     -0.088349
  C      -1.092315      1.588812     -0.346947
  O      -1.301055      2.871686     -0.727965
  C       0.184013      1.073853     -0.265773
  H       4.213766     -0.929231      0.972605
  H       4.668647      0.322151     -0.224682
  H       4.156348     -1.305857     -0.764290
  H      -0.563230     -2.083166      0.727588
  H      -2.905879     -2.188137      0.771213
  H      -2.259756      3.017537     -0.736288
  H       1.030105      1.699936     -0.517224
  O      -6.219934     -1.385100     -0.881519
  H      -6.607562     -1.611819     -0.026361
  H      -6.924764     -0.968329     -1.394135
  O      -6.400522      1.447930     -1.271479
  H      -6.092801      2.263116     -1.682613
  H      -6.910913      1.714807     -0.498533
  O      -5.610167      0.236887      1.468503
  H      -5.333502      1.100660      1.796471
  H      -5.117528     -0.407805      1.990872
  O      -3.815787     -0.679433     -2.312154
  H      -4.162124     -1.562394     -2.488815
  H      -3.966121     -0.164913     -3.113809
33
Coordinates from ORCA-job cu_P1_cplx E -2630.524360418395
  Cu     -4.804345      0.069927     -0.582216
  C       4.018460     -0.513958      0.017431
  O       2.689219     -0.000066     -0.085155
  C       1.709678     -0.856673      0.204906
  O       1.932273     -2.006920      0.536064
  C       0.371355     -0.261304      0.109698
  C      -0.725372     -1.063847      0.418766
  C      -1.996539     -0.537884      0.343682
  O      -3.128579     -1.261013      0.614708
  C      -2.220933      0.788027     -0.036915
  O      -3.431604      1.324728     -0.117468
  C      -1.104638      1.566605     -0.354967
  O      -1.320733      2.854931     -0.752548
  C       0.177538      1.065984     -0.279077
  H       4.213784     -0.884736      1.023705
  H       4.675183      0.324333     -0.204772
  H       4.177507     -1.313957     -0.706855
  H      -0.577344     -2.097990      0.714212
  H      -2.907166     -2.187979      0.754595
  H      -2.278879      2.982366     -0.765066
  H       1.016093      1.705068     -0.532232
  O      -6.212653     -1.384540     -0.859127
  H      -6.597983     -1.611099     -0.001753
  H      -6.932757     -0.978722     -1.360226
  O      -6.386818      1.447841     -1.252947
  H      -6.058649      2.252093     -1.672334
  H      -6.858282      1.757002     -0.470198
  O      -5.600203      0.220512      1.444745
  H      -5.319875      1.085899      1.768314
  H      -5.080065     -0.408645      1.961728
  O      -3.850335     -0.646784     -2.303945
  H      -4.208018     -1.521620     -2.499441
  H      -4.032400     -0.117951     -3.090290
33
Coordinates from ORCA-job cu_P1_cplx E -2630.524881837398
  Cu     -4.805817      0.059551     -0.583109
  C       4.014520     -0.516866     -0.014811
  O       2.685790      0.004775     -0.075858
  C       1.711613     -0.842759      0.258877
  O       1.933815     -2.001842      0.556057
  C       0.370206     -0.255106      0.146203
  C      -0.725100     -1.064063      0.444819
  C      -1.997880     -0.542009      0.353172
  O      -3.131469     -1.267259      0.617165
  C      -2.224317      0.779446     -0.034042
  O      -3.442192      1.311294     -0.134522
  C      -1.110027      1.563167     -0.340584
  O      -1.326295      2.851941     -0.746541
  C       0.174561      1.070212     -0.249537
  H       4.251203     -0.856307      0.993658
  H       4.667269      0.309105     -0.289523
  H       4.138835     -1.337388     -0.722335
  H      -0.586497     -2.097024      0.746213
  H      -2.910375     -2.195028      0.756503
  H      -2.287219      2.968449     -0.769475
  H       1.010758      1.713887     -0.495412
  O      -6.201275     -1.389591     -0.858115
  H      -6.591089     -1.616148     -0.002663
  H      -6.925330     -0.995462     -1.363298
  O      -6.369251      1.446829     -1.260685
  H      -6.022723      2.241257     -1.685028
  H      -6.825884      1.778360     -0.477780
  O      -5.604585      0.209803      1.418519
  H      -5.328989      1.078650      1.738468
  H      -5.072074     -0.409238      1.936186
  O      -3.856333     -0.628483     -2.296734
  H      -4.219746     -1.497692     -2.509203
  H      -4.047181     -0.084834     -3.071562
33
Coordinates from ORCA-job cu_P1_cplx E -2630.525759383210
  Cu     -4.814094      0.047766     -0.575516
  C       4.021102     -0.493149      0.029523
  O       2.687947      0.009782     -0.066272
  C       1.714020     -0.853103      0.233220
  O       1.939964     -2.001007      0.568231
  C       0.369612     -0.268503      0.122592
  C      -0.723068     -1.081482      0.425862
  C      -1.997996     -0.562922      0.332165
  O      -3.129424     -1.288052      0.601394
  C      -2.226936      0.758487     -0.062172
  O      -3.447303      1.287887     -0.168060
  C      -1.112102      1.547420     -0.369318
  O      -1.328476      2.836210     -0.777725
  C       0.173666      1.056230     -0.275137
  H       4.239461     -0.814066      1.048425
  H       4.669332      0.337313     -0.242036
  H       4.171044     -1.320449     -0.664724
  H      -0.591002     -2.112753      0.731405
  H      -2.909562     -2.218307      0.733505
  H      -2.293019      2.944541     -0.799736
  H       1.007469      1.700196     -0.521778
  O      -6.205941     -1.386515     -0.828363
  H      -6.588955     -1.613186      0.029978
  H      -6.939058     -1.005515     -1.330778
  O      -6.355827      1.460992     -1.236061
  H      -5.986398      2.239296     -1.671524
  H      -6.782495      1.817682     -0.446982
  O      -5.583140      0.199715      1.406756
  H      -5.307058      1.072052      1.718298
  H      -5.031912     -0.411296      1.915320
  O      -3.902567     -0.602776     -2.296791
  H      -4.281688     -1.460702     -2.529928
  H      -4.108673     -0.032154     -3.048751
33
Coordinates from ORCA-job cu_P1_cplx E -2630.526304273124
  Cu     -4.817090      0.039694     -0.572714
  C       4.022283     -0.483557      0.041408
  O       2.687920      0.013606     -0.056727
  C       1.714398     -0.851331      0.238806
  O       1.941728     -1.997236      0.581728
  C       0.368787     -0.271003      0.121239
  C      -0.723064     -1.086295      0.423373
  C      -2.000313     -0.575773      0.325126
  O      -3.125712     -1.304353      0.594863
  C      -2.230744      0.748667     -0.078032
  O      -3.442598      1.274693     -0.185477
  C      -1.112517      1.542393     -0.383722
  O      -1.331258      2.827669     -0.789045
  C       0.172818      1.051310     -0.281596
  H       4.237994     -0.800819      1.062320
  H       4.667737      0.347363     -0.233751
  H       4.172610     -1.315809     -0.647010
  H      -0.583672     -2.114849      0.733153
  H      -2.903353     -2.235251      0.722589
  H      -2.296541      2.936315     -0.812002
  H       1.007556      1.693944     -0.525494
  O      -6.210642     -1.389318     -0.813655
  H      -6.590761     -1.615354      0.045701
  H      -6.944434     -1.018456     -1.322303
  O      -6.349504      1.474264     -1.227352
  H      -5.967321      2.241656     -1.670258
  H      -6.768121      1.837071     -0.437045
  O      -5.568684      0.197770      1.406098
  H      -5.297553      1.073602      1.711999
  H      -5.012821     -0.411808      1.911218
  O      -3.926982     -0.594225     -2.304434
  H      -4.316827     -1.443239     -2.552854
  H      -4.126396     -0.001712     -3.041127
33
Coordinates from ORCA-job cu_P1_cplx E -2630.526803653456
  Cu     -4.823603      0.024243     -0.568444
  C       4.025386     -0.473157      0.058545
  O       2.690033      0.020312     -0.041461
  C       1.717402     -0.845061      0.254349
  O       1.948276     -1.990195      0.600354
  C       0.370732     -0.272602      0.123307
  C      -0.719776     -1.090382      0.421762
  C      -2.000310     -0.591809      0.313597
  O      -3.117892     -1.327636      0.584378
  C      -2.234768      0.732750     -0.100462
  O      -3.437024      1.252924     -0.214374
  C      -1.115266      1.532081     -0.400762
  O      -1.341515      2.811492     -0.807018
  C       0.170634      1.045881     -0.287340
  H       4.241145     -0.782020      1.082205
  H       4.668610      0.355676     -0.226622
  H       4.173299     -1.314831     -0.619048
  H      -0.569100     -2.115276      0.738990
  H      -2.890276     -2.258054      0.706668
  H      -2.306632      2.919349     -0.833218
  H       1.005591      1.690039     -0.527093
  O      -6.218846     -1.397797     -0.791047
  H      -6.596579     -1.622099      0.069383
  H      -6.953678     -1.045233     -1.310491
  O      -6.340883      1.495549     -1.215640
  H      -5.936733      2.243675     -1.670538
  H      -6.742661      1.872451     -0.423878
  O      -5.546109      0.193405      1.405053
  H      -5.286489      1.075576      1.701937
  H      -4.980312     -0.409732      1.906607
  O      -3.970136     -0.579732     -2.319363
  H      -4.380211     -1.409746     -2.596883
  H      -4.155390      0.049588     -3.028432
33
Coordinates from ORCA-job cu_P1_cplx E -2630.527130463046
  Cu     -4.832734      0.007297     -0.563507
  C       4.030378     -0.463112      0.076990
  O       2.693773      0.026535     -0.028389
  C       1.722665     -0.840608      0.266209
  O       1.957585     -1.984822      0.614473
  C       0.375634     -0.275153      0.124697
  C      -0.713997     -1.094683      0.419993
  C      -1.996854     -0.605040      0.302380
  O      -3.109801     -1.347643      0.574362
  C      -2.235892      0.716823     -0.119131
  O      -3.434730      1.232149     -0.242015
  C      -1.116748      1.520005     -0.414146
  O      -1.350118      2.795135     -0.825467
  C       0.170230      1.040770     -0.292247
  H       4.245312     -0.764841      1.102960
  H       4.671580      0.365126     -0.214059
  H       4.180561     -1.310972     -0.592364
  H      -0.554887     -2.116772      0.743441
  H      -2.876796     -2.276892      0.693312
  H      -2.314819      2.901020     -0.854622
  H       1.004192      1.687907     -0.529363
  O      -6.230223     -1.408716     -0.769749
  H      -6.608852     -1.629382      0.091051
  H      -6.965342     -1.074261     -1.300203
  O      -6.334625      1.515347     -1.205942
  H      -5.908404      2.242786     -1.673432
  H      -6.714565      1.911354     -0.413161
  O      -5.525998      0.188566      1.406246
  H      -5.280039      1.077313      1.694743
  H      -4.948272     -0.404186      1.906593
  O      -4.017019     -0.567083     -2.335059
  H      -4.451444     -1.372772     -2.644458
  H      -4.182833      0.098431     -3.015116
33
Coordinates from ORCA-job cu_P1_cplx E -2630.527712874299
  Cu     -4.851004     -0.024387     -0.553963
  C       4.040206     -0.445610      0.106506
  O       2.701302      0.036747     -0.009434
  C       1.733526     -0.834819      0.282573
  O       1.975450     -1.977041      0.634656
  C       0.386056     -0.280151      0.127177
  C      -0.702208     -1.102754      0.417379
  C      -1.987894     -0.625265      0.285083
  O      -3.095613     -1.378417      0.558281
  C      -2.235036      0.690130     -0.145649
  O      -3.433570      1.197797     -0.285414
  C      -1.117634      1.499026     -0.432121
  O      -1.361190      2.769145     -0.853561
  C       0.171377      1.032862     -0.298314
  H       4.252401     -0.740313      1.135022
  H       4.677842      0.384421     -0.187347
  H       4.198717     -1.298252     -0.554789
  H      -0.531097     -2.120849      0.749248
  H      -2.852730     -2.304993      0.674499
  H      -2.325271      2.870624     -0.887227
  H       1.002543      1.686000     -0.531754
  O      -6.255351     -1.431136     -0.734715
  H      -6.641393     -1.640848      0.125429
  H      -6.987755     -1.128193     -1.286746
  O      -6.324210      1.548204     -1.194891
  H      -5.860396      2.236169     -1.685297
  H      -6.659985      1.982171     -0.402457
  O      -5.495065      0.180368      1.412573
  H      -5.276216      1.080258      1.687773
  H      -4.896315     -0.389663      1.914702
  O      -4.101087     -0.550984     -2.362599
  H      -4.582916     -1.303596     -2.728809
  H      -4.218563      0.172974     -2.990788
33
Coordinates from ORCA-job cu_P1_cplx E -2630.528170461062
  Cu     -4.870479     -0.057288     -0.542986
  C       4.050389     -0.426810      0.134404
  O       2.709218      0.046880      0.006779
  C       1.745333     -0.831400      0.292889
  O       1.993449     -1.971600      0.647327
  C       0.396524     -0.285950      0.127814
  C      -0.689515     -1.113361      0.412477
  C      -1.976992     -0.644079      0.268981
  O      -3.082142     -1.405357      0.540933
  C      -2.231689      0.664813     -0.166857
  O      -3.434260      1.165362     -0.322574
  C      -1.117382      1.479585     -0.445558
  O      -1.367470      2.748158     -0.874675
  C       0.173822      1.025787     -0.302407
  H       4.256869     -0.722185      1.163804
  H       4.684514      0.408719     -0.151895
  H       4.222183     -1.276401     -0.527455
  H      -0.510991     -2.129034      0.748733
  H      -2.830205     -2.329252      0.657013
  H      -2.331593      2.843406     -0.912235
  H       1.001278      1.685485     -0.531646
  O      -6.284720     -1.455182     -0.699860
  H      -6.686917     -1.644858      0.157602
  H      -7.008633     -1.183833     -1.278571
  O      -6.312198      1.577550     -1.190117
  H      -5.812847      2.222857     -1.703422
  H      -6.597707      2.051856     -0.400919
  O      -5.466665      0.173042      1.423102
  H      -5.279529      1.084060      1.684766
  H      -4.845273     -0.367131      1.930846
  O      -4.186770     -0.542195     -2.388111
  H      -4.719263     -1.230680     -2.805973
  H      -4.243417      0.228663     -2.967187
33
Coordinates from ORCA-job cu_P1_cplx E -2630.528458282696
  Cu     -4.883899     -0.080568     -0.533590
  C       4.057046     -0.412713      0.151697
  O       2.714358      0.053794      0.016170
  C       1.753665     -0.830536      0.296639
  O       2.005118     -1.969149      0.652213
  C       0.402542     -0.290406      0.127568
  C      -0.680570     -1.123624      0.407558
  C      -1.968858     -0.657558      0.258381
  O      -3.074632     -1.422157      0.526059
  C      -2.227523      0.648515     -0.178349
  O      -3.434458      1.143878     -0.343388
  C      -1.116643      1.468376     -0.451710
  O      -1.368044      2.738136     -0.883818
  C       0.176271      1.021376     -0.302837
  H       4.257716     -0.713595      1.180601
  H       4.688727      0.428842     -0.122643
  H       4.240595     -1.254752     -0.516623
  H      -0.501737     -2.139075      0.743609
  H      -2.818767     -2.344742      0.644604
  H      -2.332953      2.826786     -0.924907
  H       1.000833      1.685596     -0.528210
  O      -6.305118     -1.473487     -0.674461
  H      -6.727172     -1.639051      0.178623
  H      -7.017188     -1.225340     -1.277882
  O      -6.304459      1.592882     -1.190276
  H      -5.781646      2.206473     -1.719484
  H      -6.551324      2.096086     -0.405461
  O      -5.446713      0.169244      1.433206
  H      -5.288542      1.089233      1.682700
  H      -4.806677     -0.341724      1.948062
  O      -4.246731     -0.541561     -2.403445
  H      -4.819660     -1.173986     -2.855366
  H      -4.246636      0.254437     -2.950217
33
Coordinates from ORCA-job cu_P1_cplx E -2630.528654742905
  Cu     -4.894305     -0.100898     -0.523586
  C       4.061493     -0.399742      0.166874
  O       2.717566      0.059443      0.022873
  C       1.759761     -0.829827      0.299703
  O       2.013498     -1.966234      0.658653
  C       0.405655     -0.294599      0.125991
  C      -0.673726     -1.134669      0.401106
  C      -1.962702     -0.671006      0.247056
  O      -3.069895     -1.436667      0.507778
  C      -2.223815      0.634761     -0.189354
  O      -3.434169      1.124840     -0.359523
  C      -1.116553      1.459816     -0.458240
  O      -1.368028      2.730923     -0.891158
  C       0.177918      1.016685     -0.304122
  H       4.255979     -0.702858      1.196287
  H       4.691244      0.446373     -0.098171
  H       4.255678     -1.236034     -0.505681
  H      -0.498428     -2.150547      0.736321
  H      -2.813612     -2.358853      0.630281
  H      -2.334080      2.812107     -0.936221
  H       1.000213      1.684410     -0.525390
  O      -6.318760     -1.490416     -0.649317
  H      -6.763611     -1.626246      0.197515
  H      -7.016088     -1.264806     -1.278444
  O      -6.298442      1.600946     -1.189185
  H      -5.756365      2.185291     -1.732362
  H      -6.509475      2.128036     -0.409384
  O      -5.426297      0.164891      1.442128
  H      -5.301744      1.094045      1.676940
  H      -4.765199     -0.311644      1.963342
  O      -4.299803     -0.541626     -2.413094
  H      -4.915312     -1.108123     -2.895832
  H      -4.231676      0.271856     -2.928764
33
Coordinates from ORCA-job cu_P1_cplx E -2630.528808295343
  Cu     -4.896258     -0.108318     -0.518168
  C       4.062418     -0.397013      0.173289
  O       2.718604      0.059685      0.022937
  C       1.761084     -0.829835      0.300353
  O       2.014150     -1.964627      0.663661
  C       0.405398     -0.295726      0.123498
  C      -0.671974     -1.139485      0.396071
  C      -1.960778     -0.675560      0.240139
  O      -3.070328     -1.439054      0.494451
  C      -2.221158      0.632315     -0.194583
  O      -3.432342      1.119967     -0.363287
  C      -1.115748      1.459439     -0.462254
  O      -1.365708      2.731440     -0.893832
  C       0.179203      1.015013     -0.305990
  H       4.251828     -0.699644      1.203779
  H       4.692811      0.449914     -0.087737
  H       4.261246     -1.231586     -0.500062
  H      -0.502332     -2.156323      0.730216
  H      -2.817922     -2.361620      0.623305
  H      -2.332387      2.809260     -0.941732
  H       1.001293      1.683279     -0.525094
  O      -6.317398     -1.501175     -0.637833
  H      -6.780642     -1.612614      0.202650
  H      -7.001060     -1.287423     -1.286004
  O      -6.304728      1.594699     -1.184089
  H      -5.758036      2.171006     -1.731479
  H      -6.503203      2.127411     -0.404822
  O      -5.413315      0.163867      1.448766
  H      -5.315155      1.099385      1.671069
  H      -4.737532     -0.286101      1.974618
  O      -4.320160     -0.545996     -2.415829
  H      -4.963668     -1.065688     -2.914379
  H      -4.199282      0.270734     -2.916602
33
Coordinates from ORCA-job cu_P1_cplx E -2630.529027072924
  Cu     -4.894162     -0.113539     -0.511693
  C       4.061024     -0.399001      0.173723
  O       2.717532      0.056798      0.018859
  C       1.759359     -0.830142      0.301640
  O       2.010657     -1.963073      0.671445
  C       0.402646     -0.295861      0.121712
  C      -0.673566     -1.142316      0.391562
  C      -1.961610     -0.677025      0.232963
  O      -3.074580     -1.435226      0.477499
  C      -2.219388      0.634384     -0.199227
  O      -3.430453      1.119429     -0.364629
  C      -1.115036      1.462744     -0.464632
  O      -1.362975      2.735436     -0.892422
  C       0.179725      1.014120     -0.306308
  H       4.247334     -0.697051      1.206089
  H       4.692730      0.446465     -0.088864
  H       4.260844     -1.235398     -0.497058
  H      -0.513140     -2.160758      0.724448
  H      -2.830724     -2.358424      0.618715
  H      -2.330028      2.811353     -0.943903
  H       1.002822      1.681799     -0.522761
  O      -6.304279     -1.515066     -0.625432
  H      -6.796798     -1.587333      0.202545
  H      -6.963843     -1.318177     -1.303405
  O      -6.319404      1.574530     -1.175535
  H      -5.772130      2.148261     -1.725136
  H      -6.511745      2.107216     -0.394678
  O      -5.398912      0.163617      1.454746
  H      -5.340693      1.107175      1.656957
  H      -4.703203     -0.247062      1.986471
  O      -4.332045     -0.554922     -2.412838
  H      -5.013362     -1.000448     -2.932495
  H      -4.125677      0.257124     -2.893335
33
Coordinates from ORCA-job cu_P1_cplx E -2630.529197208843
  Cu     -4.888747     -0.112564     -0.507732
  C       4.058209     -0.407418      0.165845
  O       2.715478      0.051493      0.012033
  C       1.755407     -0.830772      0.301378
  O       2.004570     -1.963240      0.674902
  C       0.399708     -0.294071      0.121730
  C      -0.677925     -1.139459      0.389793
  C      -1.964864     -0.671934      0.230534
  O      -3.080128     -1.425317      0.468566
  C      -2.219959      0.641864     -0.198968
  O      -3.429998      1.126144     -0.362108
  C      -1.114471      1.469291     -0.462030
  O      -1.361081      2.742371     -0.885305
  C       0.179253      1.016259     -0.304079
  H       4.245580     -0.701673      1.199093
  H       4.691636      0.435014     -0.102090
  H       4.253628     -1.247672     -0.501388
  H      -0.522512     -2.159272      0.721141
  H      -2.843912     -2.348500      0.622016
  H      -2.327689      2.821132     -0.938045
  H       1.004096      1.682525     -0.518886
  O      -6.286196     -1.525011     -0.618807
  H      -6.806309     -1.560823      0.194511
  H      -6.920316     -1.344169     -1.325030
  O      -6.336442      1.548982     -1.169685
  H      -5.794537      2.129678     -1.717064
  H      -6.536337      2.074335     -0.385832
  O      -5.394087      0.165783      1.458281
  H      -5.368113      1.114056      1.644024
  H      -4.685005     -0.214657      1.994464
  O      -4.324523     -0.566162     -2.405028
  H      -5.030753     -0.949986     -2.940393
  H      -4.046739      0.233402     -2.870819
33
Coordinates from ORCA-job cu_P1_cplx E -2630.529330330915
  Cu     -4.883163     -0.110574     -0.503463
  C       4.055022     -0.418152      0.154588
  O       2.713236      0.045972      0.005521
  C       1.750930     -0.831723      0.299955
  O       1.998365     -1.964943      0.673994
  C       0.397631     -0.291841      0.122723
  C      -0.683015     -1.134123      0.388362
  C      -1.968833     -0.664497      0.229446
  O      -3.085129     -1.415262      0.463634
  C      -2.222376      0.650233     -0.197242
  O      -3.431638      1.134579     -0.361124
  C      -1.114277      1.475833     -0.456820
  O      -1.360118      2.749349     -0.876169
  C       0.178022      1.020077     -0.300078
  H       4.246237     -0.710328      1.187707
  H       4.689858      0.420991     -0.119952
  H       4.243434     -1.262660     -0.509288
  H      -0.527538     -2.154929      0.717486
  H      -2.853965     -2.337615      0.628264
  H      -2.325742      2.833639     -0.928764
  H       1.004603      1.685191     -0.513243
  O      -6.268346     -1.534178     -0.610285
  H      -6.818468     -1.530511      0.183830
  H      -6.872750     -1.376200     -1.347544
  O      -6.352262      1.521949     -1.166895
  H      -5.816376      2.111295     -1.710627
  H      -6.564141      2.038890     -0.380702
  O      -5.395296      0.168737      1.461072
  H      -5.402922      1.119921      1.631380
  H      -4.673139     -0.180730      2.000537
  O      -4.311396     -0.577445     -2.393984
  H      -5.036706     -0.896373     -2.946560
  H      -3.962821      0.205056     -2.840736
33
Coordinates from ORCA-job cu_P1_cplx E -2630.529425907995
  Cu     -4.878519     -0.105873     -0.501824
  C       4.052761     -0.426660      0.142680
  O       2.711601      0.042142      0.000976
  C       1.747861     -0.833564      0.296495
  O       1.994484     -1.968627      0.666615
  C       0.396893     -0.290443      0.124210
  C      -0.686836     -1.128905      0.389031
  C      -1.971862     -0.657251      0.232741
  O      -3.088148     -1.408346      0.468316
  C      -2.224757      0.657046     -0.192028
  O      -3.433476      1.143563     -0.357998
  C      -1.113920      1.480358     -0.449660
  O      -1.358388      2.754828     -0.867172
  C       0.177164      1.023694     -0.295616
  H       4.249113     -0.720814      1.174287
  H       4.687943      0.410983     -0.135440
  H       4.234851     -1.272543     -0.521225
  H      -0.526638     -2.150009      0.715810
  H      -2.857104     -2.329669      0.637894
  H      -2.323006      2.845060     -0.918108
  H       1.004880      1.687811     -0.508513
  O      -6.258613     -1.536613     -0.607742
  H      -6.827290     -1.509684      0.172851
  H      -6.843583     -1.394961     -1.363846
  O      -6.361198      1.504144     -1.169694
  H      -5.832144      2.104575     -1.707802
  H      -6.588408      2.013022     -0.382550
  O      -5.405848      0.172409      1.462500
  H      -5.430047      1.124180      1.626885
  H      -4.678113     -0.162174      2.003828
  O      -4.290172     -0.586553     -2.383950
  H      -5.020104     -0.878280     -2.945040
  H      -3.912456      0.186782     -2.821890
33
Coordinates from ORCA-job cu_P1_cplx E -2630.529483997604
  Cu     -4.878106     -0.106596     -0.496653
  C       4.052042     -0.428474      0.139320
  O       2.710984      0.041550      0.000973
  C       1.747069     -0.835600      0.292720
  O       1.994175     -1.972075      0.658447
  C       0.397272     -0.291680      0.122642
  C      -0.688151     -1.128386      0.385785
  C      -1.972971     -0.656274      0.231109
  O      -3.088428     -1.410235      0.469595
  C      -2.226653      0.656995     -0.192723
  O      -3.435601      1.145208     -0.362484
  C      -1.114124      1.479339     -0.448138
  O      -1.357406      2.755105     -0.865268
  C       0.176476      1.024246     -0.295200
  H       4.250885     -0.724830      1.169864
  H       4.686653      0.409497     -0.139079
  H       4.232522     -1.274092     -0.525382
  H      -0.521408     -2.149096      0.710902
  H      -2.853573     -2.330119      0.641105
  H      -2.321475      2.848575     -0.914951
  H       1.004271      1.688677     -0.507031
  O      -6.257909     -1.540528     -0.595818
  H      -6.849711     -1.484678      0.165941
  H      -6.819162     -1.428681     -1.374376
  O      -6.365365      1.495360     -1.170689
  H      -5.836857      2.097339     -1.707686
  H      -6.596039      2.005081     -0.385004
  O      -5.411798      0.174070      1.466453
  H      -5.459127      1.125829      1.626107
  H      -4.673934     -0.138848      2.007134
  O      -4.286290     -0.591437     -2.376493
  H      -5.022494     -0.837453     -2.950747
  H      -3.868846      0.171838     -2.795353
33
Coordinates from ORCA-job cu_P1_cplx E -2630.529558573993
  Cu     -4.879154     -0.108165     -0.489723
  C       4.052076     -0.427012      0.142685
  O       2.711002      0.041943      0.002551
  C       1.747257     -0.837738      0.288491
  O       1.994589     -1.974901      0.651306
  C       0.397492     -0.294016      0.117631
  C      -0.688252     -1.130682      0.379479
  C      -1.973023     -0.658398      0.225692
  O      -3.087755     -1.415085      0.466435
  C      -2.227087      0.654521     -0.197414
  O      -3.436064      1.144678     -0.368484
  C      -1.114045      1.476498     -0.452373
  O      -1.355639      2.753478     -0.869955
  C       0.176643      1.022636     -0.299581
  H       4.249484     -0.724899      1.173110
  H       4.686479      0.412042     -0.133000
  H       4.234928     -1.271362     -0.522998
  H      -0.517135     -2.150904      0.703741
  H      -2.848237     -2.333602      0.638827
  H      -2.319623      2.847980     -0.919232
  H       1.004243      1.687435     -0.510552
  O      -6.260827     -1.544342     -0.580364
  H      -6.879704     -1.455539      0.156455
  H      -6.793564     -1.469747     -1.382794
  O      -6.370534      1.490411     -1.167207
  H      -5.841865      2.092593     -1.704057
  H      -6.601286      2.002383     -0.382892
  O      -5.412637      0.175257      1.474164
  H      -5.484966      1.126114      1.630601
  H      -4.663795     -0.114218      2.012897
  O      -4.291414     -0.595876     -2.371665
  H      -5.033906     -0.784237     -2.959321
  H      -3.826759      0.152380     -2.767432
33
Coordinates from ORCA-job cu_P1_cplx E -2630.529606173628
  Cu     -4.881668     -0.110626     -0.476162
  C       4.052135     -0.423638      0.151610
  O       2.711126      0.042871      0.005819
  C       1.747702     -0.840862      0.281879
  O       1.994821     -1.978747      0.641041
  C       0.397165     -0.297902      0.107379
  C      -0.688000     -1.135839      0.367403
  C      -1.972813     -0.663565      0.213497
  O      -3.086545     -1.424023      0.455603
  C      -2.226881      0.649521     -0.208629
  O      -3.435931      1.142533     -0.380391
  C      -1.114006      1.471453     -0.463382
  O      -1.353082      2.750066     -0.881446
  C       0.177253      1.018881     -0.309679
  H       4.244999     -0.722737      1.182603
  H       4.686870      0.416954     -0.118742
  H       4.240399     -1.265759     -0.515383
  H      -0.513494     -2.155518      0.691028
  H      -2.839705     -2.340377      0.629637
  H      -2.317334      2.844022     -0.930885
  H       1.004377      1.684389     -0.519114
  O      -6.266371     -1.549903     -0.549780
  H      -6.939066     -1.397770      0.127306
  H      -6.737164     -1.554022     -1.393048
  O      -6.381456      1.483035     -1.156452
  H      -5.852786      2.085488     -1.693368
  H      -6.611559      1.998437     -0.373997
  O      -5.408291      0.178121      1.489450
  H      -5.526497      1.125468      1.640561
  H      -4.640707     -0.067796      2.023439
  O      -4.308509     -0.603481     -2.364574
  H      -5.054626     -0.674248     -2.973424
  H      -3.753436      0.105204     -2.714776
33
Coordinates from ORCA-job cu_P1_cplx E -2630.529658289774
  Cu     -4.880637     -0.107269     -0.480213
  C       4.053445     -0.421983      0.151944
  O       2.712119      0.043596      0.006004
  C       1.749255     -0.840198      0.282951
  O       1.996365     -1.977851      0.642433
  C       0.397730     -0.297531      0.108493
  C      -0.686221     -1.136296      0.371029
  C      -1.971362     -0.664116      0.217284
  O      -3.085163     -1.423186      0.459366
  C      -2.224752      0.649370     -0.205638
  O      -3.433447      1.142857     -0.374255
  C      -1.113123      1.471629     -0.463036
  O      -1.353004      2.749453     -0.881360
  C       0.178574      1.018084     -0.309703
  H       4.245632     -0.721611      1.182875
  H       4.688087      0.419173     -0.116940
  H       4.242602     -1.262741     -0.516478
  H      -0.515482     -2.156188      0.695749
  H      -2.839225     -2.340491      0.630071
  H      -2.317655      2.841414     -0.930700
  H       1.005478      1.683286     -0.520788
  O      -6.268605     -1.543361     -0.560006
  H      -6.930264     -1.406897      0.130803
  H      -6.754283     -1.527963     -1.395023
  O      -6.377755      1.488264     -1.157655
  H      -5.852573      2.095851     -1.692130
  H      -6.613735      1.999521     -0.374282
  O      -5.410342      0.178758      1.487130
  H      -5.507619      1.127370      1.644651
  H      -4.650798     -0.087828      2.022566
  O      -4.301810     -0.605465     -2.367347
  H      -5.050516     -0.720222     -2.966703
  H      -3.783997      0.122198     -2.736069
33
Coordinates from ORCA-job cu_P1_cplx E -2630.529625815854
  Cu     -4.880733     -0.105150     -0.480397
  C       4.055072     -0.419487      0.152679
  O       2.713297      0.044909      0.006882
  C       1.751257     -0.839484      0.283730
  O       1.998746     -1.977021      0.643040
  C       0.398630     -0.297688      0.108807
  C      -0.683852     -1.137802      0.372931
  C      -1.969642     -0.666653      0.218244
  O      -3.082975     -1.425159      0.459665
  C      -2.222845      0.647099     -0.205458
  O      -3.431505      1.140480     -0.372122
  C      -1.112620      1.470388     -0.464068
  O      -1.354478      2.747115     -0.882358
  C       0.179676      1.016684     -0.310448
  H       4.247002     -0.719010      1.183658
  H       4.689355      0.422213     -0.115425
  H       4.245004     -1.259203     -0.516781
  H      -0.517103     -2.157880      0.698865
  H      -2.836955     -2.343070      0.627441
  H      -2.319667      2.835941     -0.931781
  H       1.005980      1.682235     -0.522559
  O      -6.272086     -1.537164     -0.561377
  H      -6.939783     -1.398103      0.122896
  H      -6.752231     -1.527172     -1.399891
  O      -6.374733      1.492539     -1.156313
  H      -5.852047      2.103898     -1.688820
  H      -6.616361      2.000984     -0.372835
  O      -5.410461      0.180282      1.486583
  H      -5.499617      1.128977      1.648030
  H      -4.654296     -0.095100      2.022439
  O      -4.302136     -0.609469     -2.367412
  H      -5.053184     -0.734763     -2.961863
  H      -3.797789      0.125262     -2.740959
33
Coordinates from ORCA-job cu_P1_cplx E -2630.529697030883
  Cu     -4.881732     -0.103898     -0.478662
  C       4.057141     -0.417795      0.151786
  O       2.714951      0.046205      0.007342
  C       1.753548     -0.838373      0.284499
  O       2.001659     -1.975987      0.643435
  C       0.400337     -0.297503      0.109762
  C      -0.681039     -1.138731      0.374331
  C      -1.967594     -0.669226      0.218635
  O      -3.080140     -1.427777      0.458997
  C      -2.221282      0.644516     -0.205418
  O      -3.430006      1.136859     -0.371490
  C      -1.112175      1.469347     -0.463831
  O      -1.357110      2.744726     -0.881740
  C       0.180565      1.016122     -0.309979
  H       4.249629     -0.718159      1.182380
  H       4.690907      0.424438     -0.115840
  H       4.246827     -1.256598     -0.518871
  H      -0.517147     -2.159052      0.701057
  H      -2.834186     -2.346081      0.624805
  H      -2.322653      2.830881     -0.931155
  H       1.006207      1.682431     -0.522543
  O      -6.276314     -1.531694     -0.558839
  H      -6.958781     -1.381149      0.108151
  H      -6.739603     -1.539816     -1.406924
  O      -6.372174      1.496146     -1.154908
  H      -5.851373      2.110458     -1.685690
  H      -6.620265      2.002183     -0.371949
  O      -5.410476      0.183011      1.486984
  H      -5.498206      1.131463      1.650143
  H      -4.656385     -0.095587      2.024072
  O      -4.305991     -0.615788     -2.366442
  H      -5.059403     -0.735354     -2.959086
  H      -3.800816      0.119410     -2.737988
33
Coordinates from ORCA-job cu_P1_cplx E -2630.529728767355
  Cu     -4.883550     -0.103285     -0.475523
  C       4.059328     -0.416485      0.148264
  O       2.716615      0.047321      0.006704
  C       1.755943     -0.837430      0.284986
  O       2.005153     -1.975209      0.643241
  C       0.402526     -0.297529      0.111513
  C      -0.678253     -1.139564      0.375434
  C      -1.965494     -0.671674      0.219323
  O      -3.077443     -1.430814      0.458519
  C      -2.220080      0.641847     -0.204399
  O      -3.429020      1.132753     -0.371451
  C      -1.111745      1.468359     -0.461547
  O      -1.359582      2.742818     -0.878794
  C       0.181177      1.016152     -0.307693
  H       4.253677     -0.718521      1.177995
  H       4.692067      0.426513     -0.119331
  H       4.247976     -1.254372     -0.523828
  H      -0.515170     -2.160154      0.702019
  H      -2.831853     -2.349307      0.623548
  H      -2.325171      2.827456     -0.928034
  H       1.006221      1.683408     -0.520022
  O      -6.281670     -1.526919     -0.553733
  H      -6.984513     -1.358322      0.087214
  H      -6.719450     -1.562661     -1.414582
  O      -6.370094      1.498766     -1.154405
  H      -5.850428      2.115809     -1.682929
  H      -6.625414      2.002701     -0.372533
  O      -5.412106      0.187219      1.488328
  H      -5.503533      1.135351      1.650978
  H      -4.659575     -0.089881      2.028212
  O      -4.311219     -0.624374     -2.364542
  H      -5.065872     -0.725402     -2.959011
  H      -3.792527      0.105058     -2.728897
33
Coordinates from ORCA-job cu_P1_cplx E -2630.529711790229
  Cu     -4.885269     -0.104424     -0.474887
  C       4.060304     -0.414370      0.149088
  O       2.717252      0.048345      0.006831
  C       1.757107     -0.837198      0.284687
  O       2.007374     -1.974838      0.643013
  C       0.403752     -0.298468      0.111072
  C      -0.677041     -1.140840      0.373756
  C      -1.964503     -0.673516      0.218322
  O      -3.076324     -1.433018      0.457795
  C      -2.220035      0.639688     -0.204855
  O      -3.429331      1.129530     -0.372842
  C      -1.111826      1.466906     -0.461068
  O      -1.360548      2.741663     -0.877338
  C       0.181039      1.015762     -0.307243
  H       4.254527     -0.716710      1.178758
  H       4.692181      0.429363     -0.118182
  H       4.249973     -1.252245     -0.522740
  H      -0.512467     -2.161445      0.699707
  H      -2.831476     -2.351750      0.622347
  H      -2.326067      2.826528     -0.926105
  H       1.005846      1.683746     -0.518461
  O      -6.285293     -1.525201     -0.551733
  H      -6.989976     -1.354558      0.086739
  H      -6.720668     -1.564837     -1.413539
  O      -6.367251      1.501716     -1.154734
  H      -5.846059      2.117335     -1.683426
  H      -6.621992      2.006707     -0.373347
  O      -5.412186      0.188421      1.487713
  H      -5.502334      1.136837      1.649415
  H      -4.661181     -0.089930      2.029046
  O      -4.315713     -0.626052     -2.364826
  H      -5.070082     -0.725671     -2.959692
  H      -3.794811      0.102151     -2.728249
33
Coordinates from ORCA-job cu_P1_cplx E -2630.529705567873
  Cu     -4.886923     -0.104722     -0.474116
  C       4.061155     -0.412557      0.147453
  O       2.717807      0.049127      0.005081
  C       1.758251     -0.837313      0.283010
  O       2.009774     -1.974927      0.640755
  C       0.405012     -0.299522      0.110634
  C      -0.675991     -1.142147      0.371857
  C      -1.963476     -0.674938      0.218122
  O      -3.075427     -1.434798      0.457935
  C      -2.220083      0.638127     -0.203540
  O      -3.429774      1.126948     -0.372574
  C      -1.111891      1.466091     -0.458282
  O      -1.360328      2.741958     -0.873163
  C       0.180846      1.015972     -0.305217
  H       4.255663     -0.715658      1.176867
  H       4.692068      0.431989     -0.119452
  H       4.251651     -1.250328     -0.524320
  H      -0.508214     -2.162908      0.695774
  H      -2.831865     -2.353813      0.622511
  H      -2.325615      2.828211     -0.921427
  H       1.005602      1.684527     -0.514888
  O      -6.289579     -1.522313     -0.550052
  H      -6.997493     -1.346960      0.083610
  H      -6.720099     -1.567049     -1.413982
  O      -6.364194      1.502992     -1.155950
  H      -5.842383      2.119932     -1.682573
  H      -6.621548      2.007265     -0.374909
  O      -5.416275      0.191338      1.487306
  H      -5.504652      1.140360      1.646470
  H      -4.668711     -0.087964      2.032796
  O      -4.316649     -0.631410     -2.363584
  H      -5.069472     -0.728906     -2.960627
  H      -3.790267      0.093023     -2.726504
33
Coordinates from ORCA-job cu_P1_cplx E -2630.529748149170
  Cu     -4.888187     -0.105228     -0.473290
  C       4.061793     -0.410746      0.147477
  O       2.718215      0.049949      0.004648
  C       1.759107     -0.837497      0.281602
  O       2.011356     -1.975226      0.638329
  C       0.405582     -0.300286      0.109728
  C      -0.675143     -1.143670      0.370011
  C      -1.962686     -0.676650      0.217038
  O      -3.074555     -1.436851      0.456752
  C      -2.219984      0.636614     -0.203672
  O      -3.429951      1.124746     -0.373021
  C      -1.112119      1.465305     -0.457242
  O      -1.360236      2.742029     -0.870809
  C       0.180806      1.015775     -0.304466
  H       4.255943     -0.714648      1.176738
  H       4.692212      0.434539     -0.118247
  H       4.253503     -1.247803     -0.524854
  H      -0.505640     -2.164518      0.692685
  H      -2.831189     -2.355988      0.620867
  H      -2.325490      2.828509     -0.918953
  H       1.005420      1.684814     -0.513006
  O      -6.293089     -1.520303     -0.547770
  H      -7.003462     -1.340378      0.081765
  H      -6.719979     -1.569860     -1.413243
  O      -6.361772      1.504075     -1.156197
  H      -5.839231      2.121979     -1.681007
  H      -6.620834      2.007822     -0.375355
  O      -5.418737      0.193605      1.487391
  H      -5.506542      1.143067      1.644346
  H      -4.673132     -0.084931      2.035877
  O      -4.318370     -0.635352     -2.362624
  H      -5.070119     -0.728776     -2.961693
  H      -3.786565      0.085513     -2.724782
33
Coordinates from ORCA-job cu_P1_cplx E -2630.529757475305
  Cu     -4.889745     -0.105960     -0.472892
  C       4.062673     -0.407618      0.150156
  O       2.718883      0.051597      0.005530
  C       1.760337     -0.837441      0.279977
  O       2.013322     -1.975344      0.635291
  C       0.406254     -0.301157      0.107701
  C      -0.673761     -1.146084      0.366598
  C      -1.961439     -0.679605      0.214008
  O      -3.072961     -1.440339      0.453134
  C      -2.219635      0.634187     -0.205372
  O      -3.429939      1.121467     -0.373981
  C      -1.112443      1.463917     -0.457595
  O      -1.360336      2.741550     -0.869393
  C       0.180959      1.015116     -0.304907
  H       4.255205     -0.712736      1.179374
  H       4.692765      0.438744     -0.112951
  H       4.256853     -1.243304     -0.523171
  H      -0.502500     -2.166978      0.688008
  H      -2.829381     -2.359728      0.615551
  H      -2.325632      2.827793     -0.917536
  H       1.005260      1.684864     -0.512044
  O      -6.298168     -1.516919     -0.545247
  H      -7.007758     -1.333887      0.084225
  H      -6.725572     -1.567430     -1.410440
  O      -6.357460      1.506474     -1.155447
  H      -5.833836      2.126046     -1.677252
  H      -6.618795      2.008683     -0.374321
  O      -5.421171      0.196203      1.487252
  H      -5.505337      1.146490      1.641440
  H      -4.678739     -0.083251      2.039544
  O      -4.321227     -0.639956     -2.361879
  H      -5.072086     -0.734228     -2.961982
  H      -3.787672      0.078461     -2.726357
33
Coordinates from ORCA-job cu_P1_cplx E -2630.529733692005
  Cu     -4.889952     -0.106149     -0.472825
  C       4.062932     -0.406820      0.151053
  O       2.719145      0.052285      0.006346
  C       1.760678     -0.837237      0.279424
  O       2.013659     -1.975463      0.633550
  C       0.406336     -0.300987      0.107029
  C      -0.673260     -1.146796      0.365277
  C      -1.961021     -0.680738      0.212164
  O      -3.072305     -1.441936      0.450025
  C      -2.219361      0.633556     -0.206444
  O      -3.429670      1.120515     -0.374423
  C      -1.112573      1.463913     -0.457542
  O      -1.360616      2.741754     -0.868281
  C       0.181129      1.015218     -0.304708
  H       4.254926     -0.713010      1.180052
  H       4.693198      0.439882     -0.110597
  H       4.257671     -1.241495     -0.523361
  H      -0.501874     -2.167812      0.686120
  H      -2.828077     -2.361331      0.611542
  H      -2.325960      2.827618     -0.916771
  H       1.005241      1.685387     -0.511189
  O      -6.299993     -1.515468     -0.543898
  H      -7.009115     -1.329847      0.085337
  H      -6.727399     -1.566213     -1.409098
  O      -6.355564      1.506631     -1.154969
  H      -5.831643      2.128254     -1.674029
  H      -6.620016      2.006550     -0.373416
  O      -5.422609      0.197894      1.487408
  H      -5.506152      1.148621      1.639346
  H      -4.681342     -0.080513      2.041792
  O      -4.321640     -0.643113     -2.361037
  H      -5.072060     -0.736409     -2.961890
  H      -3.785792      0.072886     -2.726961
33
Coordinates from ORCA-job cu_P1_cplx E -2630.529736596866
  Cu     -4.889620     -0.106522     -0.472926
  C       4.062901     -0.406732      0.152109
  O       2.719166      0.052755      0.007936
  C       1.760625     -0.836960      0.279592
  O       2.013315     -1.975630      0.632486
  C       0.406229     -0.300484      0.106820
  C      -0.673136     -1.146915      0.364176
  C      -1.960973     -0.681272      0.209993
  O      -3.072031     -1.443117      0.446109
  C      -2.219124      0.633459     -0.207904
  O      -3.429355      1.120354     -0.375458
  C      -1.112557      1.464319     -0.457790
  O      -1.361131      2.742003     -0.867744
  C       0.181314      1.015564     -0.304475
  H       4.254739     -0.714091      1.180779
  H       4.693431      0.440134     -0.108391
  H       4.257540     -1.240423     -0.523531
  H      -0.502566     -2.168114      0.684850
  H      -2.826717     -2.362365      0.606979
  H      -2.326535      2.827280     -0.916775
  H       1.005228      1.686164     -0.510407
  O      -6.300557     -1.515128     -0.542423
  H      -7.008436     -1.327376      0.087608
  H      -6.728896     -1.565144     -1.407215
  O      -6.354359      1.506189     -1.154625
  H      -5.829783      2.129675     -1.670732
  H      -6.622230      2.003519     -0.372609
  O      -5.422743      0.199014      1.487641
  H      -5.507299      1.150008      1.637391
  H      -4.681190     -0.077110      2.042768
  O      -4.322127     -0.645209     -2.360325
  H      -5.072561     -0.736478     -2.961524
  H      -3.783645      0.068261     -2.727358
33
Coordinates from ORCA-job cu_P1_cplx E -2630.529763045242
  Cu     -4.889534     -0.107159     -0.472851
  C       4.063158     -0.406242      0.153696
  O       2.719389      0.053364      0.009738
  C       1.760864     -0.836710      0.279786
  O       2.013476     -1.975761      0.631631
  C       0.406487     -0.300333      0.106511
  C      -0.672785     -1.147236      0.362571
  C      -1.960755     -0.682031      0.207547
  O      -3.071628     -1.444670      0.442067
  C      -2.218828      0.632948     -0.209478
  O      -3.429011      1.119814     -0.377082
  C      -1.112384      1.464384     -0.458109
  O      -1.361710      2.741927     -0.867251
  C       0.181510      1.015786     -0.304271
  H       4.254797     -0.714692      1.182062
  H       4.693686      0.440954     -0.105755
  H       4.257911     -1.239120     -0.522908
  H      -0.503027     -2.168699      0.682907
  H      -2.825355     -2.363761      0.602369
  H      -2.327142      2.826641     -0.916691
  H       1.005180      1.686954     -0.509440
  O      -6.301733     -1.514796     -0.540314
  H      -7.009162     -1.324432      0.089465
  H      -6.730091     -1.565583     -1.405043
  O      -6.353058      1.506565     -1.154635
  H      -5.827282      2.131504     -1.667706
  H      -6.624390      2.001655     -0.372426
  O      -5.421959      0.200169      1.488055
  H      -5.508009      1.151292      1.636108
  H      -4.679616     -0.073785      2.043192
  O      -4.324126     -0.647268     -2.360011
  H      -5.075032     -0.735877     -2.961036
  H      -3.782920      0.063823     -2.727672
33
Coordinates from ORCA-job cu_P1_cplx E -2630.529768444070
  Cu     -4.889299     -0.108148     -0.472957
  C       4.063560     -0.405446      0.156130
  O       2.719711      0.054137      0.012199
  C       1.761214     -0.836538      0.279917
  O       2.013824     -1.976083      0.630382
  C       0.406959     -0.300419      0.105945
  C      -0.672396     -1.147672      0.359956
  C      -1.960520     -0.682906      0.204007
  O      -3.071176     -1.446725      0.436435
  C      -2.218514      0.632283     -0.211641
  O      -3.428629      1.119255     -0.379890
  C      -1.112011      1.464499     -0.458233
  O      -1.362168      2.742093     -0.865970
  C       0.181744      1.016139     -0.303723
  H       4.254922     -0.715101      1.184166
  H       4.693899      0.442230     -0.102187
  H       4.258558     -1.237530     -0.521366
  H      -0.503658     -2.169568      0.679566
  H      -2.823825     -2.365612      0.596269
  H      -2.327606      2.826259     -0.915837
  H       1.005163      1.688114     -0.507436
  O      -6.303320     -1.514438     -0.537180
  H      -7.009577     -1.321024      0.093023
  H      -6.732537     -1.565643     -1.401431
  O      -6.351122      1.507285     -1.155533
  H      -5.823082      2.134451     -1.663477
  H      -6.627976      1.999083     -0.373230
  O      -5.420248      0.201684      1.488356
  H      -5.508339      1.152910      1.634509
  H      -4.676322     -0.069637      2.042632
  O      -4.327233     -0.650153     -2.359811
  H      -5.079288     -0.736639     -2.959696
  H      -3.783788      0.058489     -2.728870
33
Coordinates from ORCA-job cu_P1_cplx E -2630.529770912477
  Cu     -4.889235     -0.109427     -0.472938
  C       4.063974     -0.404153      0.158779
  O       2.720010      0.055070      0.014449
  C       1.761706     -0.836455      0.279896
  O       2.014575     -1.976383      0.629079
  C       0.407523     -0.300859      0.105307
  C      -0.671902     -1.148494      0.356967
  C      -1.960157     -0.684068      0.200360
  O      -3.070646     -1.449041      0.430843
  C      -2.218260      0.631293     -0.213774
  O      -3.428311      1.118325     -0.383228
  C      -1.111654      1.464342     -0.458071
  O      -1.362259      2.742298     -0.864357
  C       0.181927      1.016370     -0.302863
  H       4.254912     -0.714643      1.186645
  H       4.693981      0.444044     -0.098590
  H       4.259542     -1.235729     -0.519185
  H      -0.503709     -2.170870      0.675449
  H      -2.822646     -2.367762      0.590559
  H      -2.327713      2.826044     -0.914657
  H       1.005202      1.689086     -0.504811
  O      -6.305417     -1.514038     -0.533430
  H      -7.010905     -1.317404      0.096670
  H      -6.735212     -1.566476     -1.397313
  O      -6.348794      1.508619     -1.157255
  H      -5.817560      2.137976     -1.659127
  H      -6.631479      1.997337     -0.375119
  O      -5.417892      0.203084      1.488534
  H      -5.508348      1.154294      1.633213
  H      -4.671928     -0.065509      2.041388
  O      -4.331403     -0.653171     -2.359943
  H      -5.084898     -0.737495     -2.958305
  H      -3.786103      0.053422     -2.730150
33
Coordinates from ORCA-job cu_P1_cplx E -2630.529763198326
  Cu     -4.889071     -0.110732     -0.473017
  C       4.064403     -0.402864      0.160973
  O       2.720308      0.055833      0.016054
  C       1.762171     -0.836454      0.279857
  O       2.015340     -1.976622      0.628094
  C       0.408007     -0.301344      0.104922
  C      -0.671513     -1.149422      0.354016
  C      -1.959805     -0.685137      0.196993
  O      -3.070227     -1.450994      0.425599
  C      -2.218102      0.630460     -0.215574
  O      -3.428040      1.117474     -0.386679
  C      -1.111325      1.464309     -0.457218
  O      -1.361833      2.742971     -0.861883
  C       0.182083      1.016704     -0.301369
  H       4.254960     -0.713631      1.188843
  H       4.694039      0.445744     -0.095913
  H       4.260656     -1.234324     -0.516931
  H      -0.503349     -2.172293      0.670958
  H      -2.822251     -2.369601      0.585895
  H      -2.327277      2.826522     -0.912759
  H       1.005404      1.689968     -0.501280
  O      -6.307469     -1.513604     -0.529661
  H      -7.012196     -1.314167      0.100414
  H      -6.738048     -1.566960     -1.393095
  O      -6.346310      1.509995     -1.160161
  H      -5.811089      2.142108     -1.654317
  H      -6.635876      1.995152     -0.378310
  O      -5.415186      0.204212      1.488376
  H      -5.508276      1.155314      1.632031
  H      -4.666839     -0.061559      2.039357
  O      -4.335640     -0.656474     -2.360407
  H      -5.090846     -0.739901     -2.956684
  H      -3.789881      0.048945     -2.732100
33
Coordinates from ORCA-job cu_P1_cplx E -2630.529790468634
  Cu     -4.888716     -0.111706     -0.473084
  C       4.064671     -0.402137      0.162149
  O       2.720590      0.056327      0.016751
  C       1.762520     -0.836373      0.279821
  O       2.015885     -1.976615      0.627579
  C       0.408293     -0.301521      0.104785
  C      -0.671265     -1.150150      0.351796
  C      -1.959477     -0.685892      0.194363
  O      -3.069968     -1.452167      0.421193
  C      -2.217969      0.630083     -0.216918
  O      -3.427780      1.116908     -0.389463
  C      -1.111075      1.464581     -0.456052
  O      -1.361015      2.744121     -0.859132
  C       0.182276      1.017205     -0.299669
  H       4.254851     -0.712971      1.190086
  H       4.694278      0.446573     -0.094450
  H       4.261361     -1.233635     -0.515584
  H      -0.502605     -2.173371      0.667338
  H      -2.822638     -2.370723      0.582729
  H      -2.326426      2.827709     -0.910769
  H       1.005812      1.690734     -0.497658
  O      -6.308994     -1.513095     -0.526426
  H      -7.013486     -1.311075      0.103097
  H      -6.739803     -1.567377     -1.389711
  O      -6.344210      1.510666     -1.163444
  H      -5.805064      2.146344     -1.648769
  H      -6.641433      1.991444     -0.381722
  O      -5.413029      0.204950      1.488048
  H      -5.509348      1.155869      1.630813
  H      -4.662433     -0.057443      2.037604
  O      -4.338758     -0.659868     -2.360926
  H      -5.095374     -0.742478     -2.955513
  H      -3.792751      0.044710     -2.733837
33
Coordinates from ORCA-job cu_P1_cplx E -2630.529771392477
  Cu     -4.888278     -0.112624     -0.473151
  C       4.064873     -0.401821      0.163186
  O       2.720899      0.056532      0.016998
  C       1.762729     -0.836158      0.280243
  O       2.016063     -1.976268      0.628307
  C       0.408424     -0.301347      0.104842
  C      -0.671080     -1.150673      0.350146
  C      -1.959130     -0.686498      0.191995
  O      -3.069770     -1.452855      0.416966
  C      -2.217791      0.629929     -0.218451
  O      -3.427508      1.116309     -0.392123
  C      -1.110897      1.464909     -0.455376
  O      -1.360078      2.745238     -0.857179
  C       0.182533      1.017716     -0.298325
  H       4.254644     -0.711927      1.191424
  H       4.694705      0.446634     -0.093701
  H       4.261909     -1.233805     -0.513861
  H      -0.501606     -2.174028      0.664665
  H      -2.823439     -2.371380      0.580195
  H      -2.325405      2.828985     -0.909772
  H       1.006366      1.691340     -0.494657
  O      -6.310124     -1.512682     -0.523455
  H      -7.014196     -1.308967      0.105981
  H      -6.741509     -1.567423     -1.386445
  O      -6.342384      1.511127     -1.166869
  H      -5.798895      2.150796     -1.642107
  H      -6.647734      1.986584     -0.385007
  O      -5.410542      0.204758      1.487672
  H      -5.510926      1.155331      1.629998
  H      -4.657504     -0.053639      2.035806
  O      -4.341814     -0.662407     -2.362056
  H      -5.099654     -0.744001     -2.955235
  H      -3.795959      0.041943     -2.735633
33
Coordinates from ORCA-job cu_P1_cplx E -2630.529797290660
  Cu     -4.887286     -0.113144     -0.473159
  C       4.065079     -0.401861      0.164752
  O       2.721292      0.056461      0.017335
  C       1.762874     -0.836070      0.280584
  O       2.015901     -1.976044      0.629115
  C       0.408602     -0.301025      0.104419
  C      -0.670912     -1.151190      0.347760
  C      -1.958665     -0.686963      0.188637
  O      -3.069682     -1.453084      0.411184
  C      -2.217214      0.630136     -0.220769
  O      -3.426855      1.116017     -0.395070
  C      -1.110347      1.465461     -0.455350
  O      -1.358587      2.746615     -0.855622
  C       0.183195      1.018235     -0.297523
  H       4.254022     -0.711420      1.193318
  H       4.695345      0.446343     -0.091958
  H       4.262745     -1.234101     -0.511796
  H      -0.500589     -2.174670      0.661283
  H      -2.824683     -2.371487      0.576981
  H      -2.323796      2.830883     -0.909340
  H       1.007368      1.691904     -0.492087
  O      -6.311033     -1.511682     -0.519725
  H      -7.014961     -1.305116      0.108959
  H      -6.742339     -1.567382     -1.382721
  O      -6.340702      1.510609     -1.170636
  H      -5.792288      2.157324     -1.630516
  H      -6.658905      1.976530     -0.388149
  O      -5.407952      0.204564      1.487628
  H      -5.515205      1.154557      1.628902
  H      -4.651789     -0.047109      2.034589
  O      -4.344538     -0.666068     -2.363327
  H      -5.103623     -0.744805     -2.955331
  H      -3.797550      0.037209     -2.737340
33
Coordinates from ORCA-job cu_P1_cplx E -2630.529760954210
  Cu     -4.886851     -0.112436     -0.473366
  C       4.064770     -0.403074      0.163653
  O       2.721121      0.055638      0.016257
  C       1.762458     -0.836115      0.281033
  O       2.015125     -1.975817      0.630700
  C       0.408294     -0.300604      0.104813
  C      -0.671321     -1.150407      0.349502
  C      -1.958914     -0.685933      0.190281
  O      -3.070200     -1.451271      0.413445
  C      -2.217146      0.631040     -0.220093
  O      -3.426888      1.116858     -0.393580
  C      -1.110260      1.465753     -0.456069
  O      -1.358241      2.746465     -0.857570
  C       0.183314      1.018154     -0.298379
  H       4.253915     -0.711805      1.192425
  H       4.695368      0.444636     -0.093907
  H       4.261953     -1.235843     -0.512388
  H      -0.501012     -2.173580      0.663989
  H      -2.825598     -2.369635      0.580072
  H      -2.323390      2.831156     -0.911250
  H       1.007568      1.691388     -0.494101
  O      -6.309271     -1.512155     -0.521736
  H      -7.012510     -1.308355      0.108610
  H      -6.741604     -1.565806     -1.384337
  O      -6.342090      1.509406     -1.170550
  H      -5.794047      2.156777     -1.629895
  H      -6.660048      1.974056     -0.387235
  O      -5.408616      0.202864      1.487616
  H      -5.517200      1.152578      1.629816
  H      -4.652498     -0.048264      2.034894
  O      -4.342061     -0.663716     -2.363957
  H      -5.100557     -0.743600     -2.956584
  H      -3.796644      0.041271     -2.737083
33
Coordinates from ORCA-job cu_P1_cplx E -2630.529773403767
  Cu     -4.885335     -0.111408     -0.473784
  C       4.064614     -0.405238      0.164564
  O       2.721361      0.053830      0.014921
  C       1.762038     -0.836157      0.282519
  O       2.013721     -1.974949      0.635885
  C       0.408248     -0.299958      0.104287
  C      -0.671618     -1.149404      0.350429
  C      -1.958748     -0.684573      0.189902
  O      -3.070888     -1.448383      0.412457
  C      -2.216088      0.632448     -0.221792
  O      -3.426213      1.117827     -0.393233
  C      -1.109213      1.466047     -0.459805
  O      -1.356612      2.745882     -0.863327
  C       0.184376      1.017647     -0.301602
  H       4.252789     -0.711336      1.194281
  H       4.696087      0.441380     -0.094513
  H       4.261965     -1.239523     -0.509556
  H      -0.501506     -2.171960      0.666864
  H      -2.827248     -2.366442      0.582211
  H      -2.321549      2.831671     -0.917473
  H       1.008751      1.690332     -0.498807
  O      -6.306647     -1.512035     -0.522954
  H      -7.006977     -1.312920      0.112060
  H      -6.742522     -1.561303     -1.384011
  O      -6.343483      1.507043     -1.172367
  H      -5.791980      2.162323     -1.616047
  H      -6.672274      1.958995     -0.386179
  O      -5.407522      0.198658      1.488204
  H      -5.526790      1.146961      1.631305
  H      -4.648640     -0.044136      2.035393
  O      -4.340078     -0.660057     -2.366904
  H      -5.098283     -0.739419     -2.960040
  H      -3.796813      0.047788     -2.737865
33
Coordinates from ORCA-job cu_P1_cplx E -2630.529791670569
  Cu     -4.885766     -0.111544     -0.473588
  C       4.065006     -0.404515      0.164898
  O       2.721563      0.054298      0.015724
  C       1.762466     -0.836347      0.281898
  O       2.014461     -1.975511      0.633961
  C       0.408623     -0.300502      0.103937
  C      -0.671235     -1.149820      0.349879
  C      -1.958561     -0.685134      0.189622
  O      -3.070497     -1.449479      0.412463
  C      -2.216042      0.631708     -0.221772
  O      -3.426216      1.117196     -0.393410
  C      -1.109188      1.465607     -0.459694
  O      -1.357122      2.745391     -0.862898
  C       0.184294      1.017415     -0.301505
  H       4.253299     -0.711761      1.194246
  H       4.696029      0.442694     -0.093312
  H       4.262550     -1.238062     -0.510073
  H      -0.501578     -2.172567      0.666087
  H      -2.826048     -2.367493      0.581315
  H      -2.322123      2.830871     -0.916689
  H       1.008409      1.690488     -0.498569
  O      -6.307583     -1.511520     -0.522553
  H      -7.008457     -1.311238      0.111503
  H      -6.742555     -1.562352     -1.383959
  O      -6.342705      1.507606     -1.172166
  H      -5.791441      2.162594     -1.616555
  H      -6.671236      1.960039     -0.386145
  O      -5.408418      0.199931      1.488406
  H      -5.527820      1.148336      1.630622
  H      -4.649970     -0.042610      2.036247
  O      -4.340569     -0.660792     -2.366227
  H      -5.098652     -0.739374     -2.959587
  H      -3.795997      0.046078     -2.737081
33
Coordinates from ORCA-job cu_P1_cplx E -2630.529796397174
  Cu     -4.885696     -0.111391     -0.473459
  C       4.065653     -0.404070      0.165387
  O       2.721982      0.054634      0.017141
  C       1.763062     -0.836962      0.280758
  O       2.015272     -1.976856      0.630450
  C       0.409238     -0.301370      0.103316
  C      -0.670766     -1.150253      0.348934
  C      -1.958260     -0.685484      0.189113
  O      -3.070060     -1.450355      0.412467
  C      -2.215738      0.631079     -0.221912
  O      -3.425948      1.116864     -0.393903
  C      -1.108761      1.465207     -0.459796
  O      -1.357077      2.744957     -0.862689
  C       0.184454      1.017043     -0.301560
  H       4.254057     -0.713617      1.194025
  H       4.696118      0.444065     -0.091085
  H       4.263366     -1.236206     -0.511262
  H      -0.501989     -2.173301      0.664813
  H      -2.824585     -2.368104      0.581287
  H      -2.322131      2.830299     -0.915996
  H       1.008296      1.690504     -0.498496
  O      -6.307994     -1.510660     -0.521931
  H      -7.009208     -1.309215      0.111385
  H      -6.742144     -1.563277     -1.383595
  O      -6.341616      1.507387     -1.173796
  H      -5.789206      2.165784     -1.611689
  H      -6.675517      1.955106     -0.387353
  O      -5.409666      0.201486      1.488756
  H      -5.534738      1.149391      1.629227
  H      -4.650139     -0.036043      2.037211
  O      -4.340401     -0.661892     -2.365661
  H      -5.098591     -0.739157     -2.959009
  H      -3.794349      0.044035     -2.736056
33
Coordinates from ORCA-job cu_P1_cplx E -2630.529778228455
  Cu     -4.885301     -0.111210     -0.473664
  C       4.065896     -0.404268      0.165851
  O       2.722259      0.054495      0.017419
  C       1.763358     -0.837243      0.280544
  O       2.015584     -1.977157      0.630166
  C       0.409560     -0.301797      0.102936
  C      -0.670542     -1.150398      0.348665
  C      -1.958038     -0.685459      0.188965
  O      -3.069870     -1.450289      0.412763
  C      -2.215448      0.630935     -0.222194
  O      -3.425669      1.116911     -0.394163
  C      -1.108363      1.464913     -0.460534
  O      -1.356578      2.744595     -0.863764
  C       0.184726      1.016634     -0.302296
  H       4.254079     -0.713979      1.194479
  H       4.696351      0.443915     -0.090453
  H       4.263643     -1.236409     -0.510786
  H      -0.502160     -2.173484      0.664709
  H      -2.824182     -2.367838      0.582308
  H      -2.321650      2.830028     -0.916867
  H       1.008553      1.690048     -0.499473
  O      -6.307355     -1.510411     -0.522305
  H      -7.007392     -1.310644      0.112832
  H      -6.743060     -1.561812     -1.383257
  O      -6.341066      1.507074     -1.175686
  H      -5.786828      2.169349     -1.605363
  H      -6.680668      1.948966     -0.388389
  O      -5.409683      0.201134      1.488776
  H      -5.541118      1.148250      1.628626
  H      -4.648372     -0.031059      2.036988
  O      -4.340067     -0.661036     -2.366269
  H      -5.098559     -0.738985     -2.959124
  H      -3.795119      0.045860     -2.736415
33
Coordinates from ORCA-job cu_P1_cplx E -2630.529807962609
  Cu     -4.884593     -0.110734     -0.474082
  C       4.066394     -0.404708      0.166476
  O       2.722854      0.054107      0.017344
  C       1.763888     -0.837704      0.280090
  O       2.016014     -1.977571      0.629857
  C       0.410091     -0.302371      0.102227
  C      -0.670078     -1.150698      0.348351
  C      -1.957541     -0.685500      0.188889
  O      -3.069426     -1.450098      0.413344
  C      -2.214904      0.630790     -0.222550
  O      -3.425041      1.117081     -0.394314
  C      -1.107697      1.464437     -0.461595
  O      -1.355550      2.744133     -0.865254
  C       0.185330      1.015962     -0.303527
  H       4.254072     -0.714057      1.195312
  H       4.697017      0.443311     -0.089911
  H       4.264294     -1.237225     -0.509657
  H      -0.501917     -2.173747      0.664627
  H      -2.823798     -2.367412      0.584242
  H      -2.320629      2.829724     -0.918026
  H       1.009314      1.689101     -0.501062
  O      -6.306162     -1.509865     -0.523313
  H      -7.004337     -1.313177      0.114809
  H      -6.744486     -1.558744     -1.383090
  O      -6.340179      1.506610     -1.178914
  H      -5.783158      2.176381     -1.593167
  H      -6.690749      1.937408     -0.390275
  O      -5.409689      0.200611      1.488648
  H      -5.552613      1.146221      1.627290
  H      -4.645247     -0.021655      2.036530
  O      -4.339468     -0.659987     -2.367375
  H      -5.098540     -0.739386     -2.959268
  H      -3.796543      0.048391     -2.737632
33
Coordinates from ORCA-job cu_P1_cplx E -2630.529780756509
  Cu     -4.884548     -0.110434     -0.474262
  C       4.066454     -0.404880      0.166172
  O       2.722942      0.053907      0.016864
  C       1.763987     -0.837737      0.280283
  O       2.016119     -1.977386      0.630707
  C       0.410137     -0.302418      0.102341
  C      -0.669980     -1.150727      0.348892
  C      -1.957437     -0.685510      0.189618
  O      -3.069245     -1.449962      0.414513
  C      -2.214856      0.630753     -0.222171
  O      -3.424880      1.117270     -0.393702
  C      -1.107625      1.464161     -0.461786
  O      -1.355392      2.743785     -0.865943
  C       0.185476      1.015690     -0.303902
  H       4.254130     -0.713600      1.195205
  H       4.697180      0.442911     -0.090719
  H       4.264309     -1.237815     -0.509453
  H      -0.501679     -2.173644      0.665452
  H      -2.823806     -2.367333      0.585348
  H      -2.320502      2.829265     -0.918674
  H       1.009612      1.688510     -0.501815
  O      -6.305525     -1.509944     -0.524544
  H      -7.003520     -1.314798      0.114242
  H      -6.744422     -1.557740     -1.384098
  O      -6.340378      1.506796     -1.178959
  H      -5.783538      2.177971     -1.591170
  H      -6.692426      1.935800     -0.389991
  O      -5.409679      0.200284      1.488403
  H      -5.554671      1.145576      1.627052
  H      -4.644575     -0.020239      2.036067
  O      -4.339116     -0.659134     -2.367585
  H      -5.098353     -0.739608     -2.959127
  H      -3.797272      0.049859     -2.738235
33
Coordinates from ORCA-job cu_P1_cplx E -2630.529788200390
  Cu     -4.883705     -0.108857     -0.475050
  C       4.066945     -0.406401      0.165119
  O       2.723642      0.052504      0.014695
  C       1.764456     -0.838126      0.280873
  O       2.016280     -1.976971      0.633980
  C       0.410569     -0.302551      0.102362
  C      -0.669474     -1.150617      0.350742
  C      -1.956848     -0.685230      0.191930
  O      -3.068514     -1.449048      0.418150
  C      -2.214199      0.630997     -0.221109
  O      -3.423813      1.118513     -0.391446
  C      -1.106816      1.463249     -0.463128
  O      -1.354224      2.742453     -0.869401
  C       0.186507      1.014726     -0.305740
  H       4.254486     -0.712052      1.195115
  H       4.698286      0.440199     -0.094210
  H       4.264490     -1.241405     -0.508032
  H      -0.500717     -2.172998      0.668539
  H      -2.823735     -2.366496      0.589514
  H      -2.319399      2.827640     -0.922230
  H       1.011239      1.686258     -0.505237
  O      -6.302187     -1.510042     -0.529449
  H      -6.999007     -1.321033      0.112448
  H      -6.743673     -1.552939     -1.387957
  O      -6.341048      1.506623     -1.180100
  H      -5.784401      2.188489     -1.574582
  H      -6.707016      1.920810     -0.389581
  O      -5.409835      0.198943      1.487521
  H      -5.570159      1.141964      1.624686
  H      -4.640366     -0.007871      2.034374
  O      -4.337014     -0.656239     -2.368437
  H      -5.096787     -0.738406     -2.959072
  H      -3.797045      0.053540     -2.740263
33
Coordinates from ORCA-job cu_P1_cplx E -2630.529792391720
  Cu     -4.883679     -0.108619     -0.475185
  C       4.066990     -0.406910      0.163923
  O       2.723663      0.052117      0.014060
  C       1.764405     -0.838167      0.281079
  O       2.016156     -1.976945      0.634490
  C       0.410588     -0.302355      0.102893
  C      -0.669527     -1.150195      0.351762
  C      -1.956915     -0.684889      0.192782
  O      -3.068573     -1.448755      0.419006
  C      -2.214183      0.631267     -0.220446
  O      -3.423808      1.118823     -0.390812
  C      -1.106769      1.463458     -0.462668
  O      -1.354374      2.742541     -0.869029
  C       0.186550      1.014902     -0.305410
  H       4.255128     -0.712162      1.193916
  H       4.698256      0.439530     -0.096122
  H       4.264064     -1.242172     -0.509043
  H      -0.500725     -2.172525      0.669776
  H      -2.823622     -2.366217      0.590036
  H      -2.319543      2.827701     -0.921725
  H       1.011253      1.686397     -0.505204
  O      -6.301882     -1.510225     -0.530440
  H      -6.998926     -1.321440      0.111303
  H      -6.743086     -1.552829     -1.389101
  O      -6.341237      1.506503     -1.179790
  H      -5.785609      2.189247     -1.574163
  H      -6.708436      1.919965     -0.389485
  O      -5.410759      0.199086      1.487165
  H      -5.571145      1.142162      1.623967
  H      -4.641511     -0.007565      2.034390
  O      -4.335913     -0.656422     -2.367903
  H      -5.095247     -0.738029     -2.959185
  H      -3.794665      0.052350     -2.739812
33
Coordinates from ORCA-job cu_P1_cplx E -2630.529792371793
  Cu     -4.882619     -0.104851     -0.477142
  C       4.067810     -0.414199      0.147798
  O       2.724350      0.046585      0.004576
  C       1.764295     -0.838461      0.285184
  O       2.015094     -1.975419      0.645358
  C       0.411282     -0.299904      0.110342
  C      -0.669697     -1.145096      0.364934
  C      -1.957125     -0.680476      0.203920
  O      -3.068857     -1.444401      0.430457
  C      -2.213240      0.634724     -0.211996
  O      -3.422991      1.122949     -0.382438
  C      -1.105388      1.465620     -0.457677
  O      -1.354633      2.743016     -0.866684
  C       0.187861      1.016534     -0.301958
  H       4.263903     -0.711669      1.178485
  H       4.698449      0.429090     -0.123892
  H       4.258191     -1.254653     -0.520609
  H      -0.500358     -2.166577      0.685990
  H      -2.822409     -2.361952      0.598685
  H      -2.319765      2.827966     -0.918179
  H       1.012469      1.686974     -0.506108
  O      -6.297000     -1.511657     -0.544394
  H      -6.996719     -1.327973      0.096103
  H      -6.735259     -1.549609     -1.404745
  O      -6.342832      1.505079     -1.178452
  H      -5.798947      2.207125     -1.554432
  H      -6.738259      1.896997     -0.391103
  O      -5.422414      0.199308      1.482301
  H      -5.594158      1.141150      1.614437
  H      -4.653401      0.003550      2.033762
  O      -4.321375     -0.657729     -2.362138
  H      -5.075339     -0.730980     -2.961402
  H      -3.764001      0.038569     -2.733958
33
Coordinates from ORCA-job cu_P1_cplx E -2630.529793230758
  Cu     -4.881384     -0.101468     -0.478197
  C       4.068824     -0.417843      0.142801
  O       2.725567      0.043573      0.000182
  C       1.764955     -0.839486      0.284901
  O       2.015139     -1.975703      0.647889
  C       0.412365     -0.299647      0.110928
  C      -0.669123     -1.143258      0.368548
  C      -1.956524     -0.678256      0.208192
  O      -3.068349     -1.441700      0.436386
  C      -2.211867      0.636645     -0.208825
  O      -3.421443      1.126075     -0.378092
  C      -1.103628      1.466268     -0.457600
  O      -1.353284      2.743058     -0.867796
  C       0.189493      1.016544     -0.302995
  H       4.266502     -0.712087      1.174079
  H       4.699589      0.424145     -0.132674
  H       4.257575     -1.260446     -0.523342
  H      -0.499493     -2.164330      0.691073
  H      -2.821300     -2.359320      0.603377
  H      -2.318454      2.828108     -0.918165
  H       1.014245      1.686162     -0.509382
  O      -6.294231     -1.511000     -0.551790
  H      -6.994747     -1.330786      0.088884
  H      -6.731853     -1.545388     -1.412584
  O      -6.343730      1.504880     -1.177719
  H      -5.807918      2.225429     -1.529260
  H      -6.766571      1.873382     -0.393438
  O      -5.428007      0.200372      1.480056
  H      -5.612896      1.140240      1.608745
  H      -4.657013      0.016969      2.032945
  O      -4.313818     -0.660265     -2.358692
  H      -5.065498     -0.728204     -2.961499
  H      -3.746202      0.026962     -2.731911
33
Coordinates from ORCA-job cu_P1_cplx E -2630.529808331393
  Cu     -4.880583     -0.100063     -0.478031
  C       4.069805     -0.416299      0.151229
  O       2.727026      0.044300      0.002451
  C       1.766259     -0.840665      0.280893
  O       2.016358     -1.977260      0.642540
  C       0.413583     -0.301741      0.104501
  C      -0.667906     -1.145382      0.361137
  C      -1.955190     -0.678947      0.203721
  O      -3.067311     -1.441174      0.434727
  C      -2.210293      0.636159     -0.212743
  O      -3.419741      1.126515     -0.380227
  C      -1.101926      1.465024     -0.463427
  O      -1.350517      2.742259     -0.873649
  C       0.190923      1.014796     -0.308621
  H       4.262045     -0.712164      1.183136
  H       4.701455      0.426545     -0.119538
  H       4.262542     -1.257828     -0.515135
  H      -0.498633     -2.166584      0.683291
  H      -2.820846     -2.358863      0.602465
  H      -2.315806      2.827678     -0.923536
  H       1.015761      1.684397     -0.514528
  O      -6.295738     -1.508459     -0.549489
  H      -6.994415     -1.329148      0.093293
  H      -6.735805     -1.542015     -1.409065
  O      -6.342666      1.507444     -1.177789
  H      -5.808626      2.241019     -1.504342
  H      -6.786857      1.857361     -0.396687
  O      -5.425046      0.200714      1.480588
  H      -5.618464      1.138728      1.609693
  H      -4.650581      0.024594      2.031009
  O      -4.316707     -0.663241     -2.358774
  H      -5.069547     -0.728250     -2.960502
  H      -3.745634      0.020179     -2.733567
33
Coordinates from ORCA-job cu_P1_cplx E -2630.529740636568
  Cu     -4.879743     -0.099671     -0.477912
  C       4.070159     -0.414723      0.157256
  O       2.727621      0.045516      0.004893
  C       1.766940     -0.841193      0.278576
  O       2.017072     -1.978399      0.638174
  C       0.414061     -0.303298      0.100490
  C      -0.667368     -1.147111      0.356622
  C      -1.954325     -0.679313      0.200785
  O      -3.067153     -1.439575      0.433894
  C      -2.209249      0.635831     -0.216152
  O      -3.418846      1.125901     -0.382869
  C      -1.100824      1.464064     -0.467748
  O      -1.347654      2.741416     -0.879370
  C       0.191747      1.013071     -0.312593
  H       4.258422     -0.713132      1.189225
  H       4.702551      0.428971     -0.109011
  H       4.265633     -1.254730     -0.510243
  H      -0.499098     -2.168385      0.678547
  H      -2.822598     -2.357278      0.604419
  H      -2.312938      2.827593     -0.929502
  H       1.016771      1.682374     -0.518482
  O      -6.296722     -1.506138     -0.546755
  H      -6.993300     -1.328409      0.098568
  H      -6.739363     -1.539377     -1.405059
  O      -6.340704      1.509117     -1.180206
  H      -5.805559      2.251842     -1.483727
  H      -6.801686      1.843954     -0.402029
  O      -5.421541      0.199286      1.480328
  H      -5.621376      1.135619      1.611127
  H      -4.644823      0.027722      2.029039
  O      -4.319386     -0.664193     -2.360134
  H      -5.072764     -0.726461     -2.961407
  H      -3.747036      0.018738     -2.733721
33
Coordinates from ORCA-job cu_P1_cplx E -2630.529805129024
  Cu     -4.878424     -0.098498     -0.478714
  C       4.070589     -0.416262      0.155859
  O       2.728197      0.045004      0.004574
  C       1.767287     -0.841484      0.278376
  O       2.017079     -1.978955      0.637372
  C       0.414430     -0.303310      0.100848
  C      -0.667213     -1.146398      0.358609
  C      -1.953830     -0.677746      0.202976
  O      -3.067225     -1.436401      0.437807
  C      -2.208421      0.637009     -0.215705
  O      -3.418063      1.126790     -0.382334
  C      -1.099779      1.464291     -0.468826
  O      -1.345374      2.741155     -0.882868
  C       0.192601      1.012448     -0.313917
  H       4.258826     -0.716076      1.187435
  H       4.703514      0.427269     -0.109590
  H       4.265221     -1.255770     -0.512531
  H      -0.499889     -2.167465      0.681437
  H      -2.823994     -2.353970      0.610852
  H      -2.310566      2.828238     -0.933039
  H       1.017926      1.680864     -0.521497
  O      -6.295273     -1.504769     -0.549391
  H      -6.990137     -1.330987      0.098799
  H      -6.739950     -1.535481     -1.406714
  O      -6.339035      1.509354     -1.183831
  H      -5.805814      2.263754     -1.460935
  H      -6.821270      1.824582     -0.410265
  O      -5.422374      0.197886      1.478655
  H      -5.631598      1.132092      1.609606
  H      -4.644482      0.033499      2.027840
  O      -4.316197     -0.664217     -2.360346
  H      -5.068566     -0.724181     -2.963093
  H      -3.741279      0.017364     -2.732423
33
Coordinates from ORCA-job cu_P1_cplx E -2630.529825623848
  Cu     -4.878683     -0.100710     -0.479076
  C       4.070193     -0.415641      0.154603
  O       2.727591      0.046343      0.006421
  C       1.766963     -0.840494      0.280104
  O       2.016968     -1.978328      0.637790
  C       0.413890     -0.302605      0.103293
  C      -0.667635     -1.146236      0.360170
  C      -1.954078     -0.677813      0.202973
  O      -3.067680     -1.436308      0.436900
  C      -2.209067      0.636683     -0.216483
  O      -3.418842      1.125080     -0.384721
  C      -1.100530      1.464450     -0.467866
  O      -1.345315      2.741348     -0.882443
  C       0.191893      1.012735     -0.312214
  H       4.259758     -0.718231      1.185122
  H       4.702981      0.428356     -0.109592
  H       4.263520     -1.253645     -0.516063
  H      -0.501030     -2.167384      0.682948
  H      -2.825225     -2.353634      0.612149
  H      -2.310320      2.829085     -0.933591
  H       1.017294      1.681151     -0.519502
  O      -6.296698     -1.504886     -0.547543
  H      -6.990766     -1.329789      0.101125
  H      -6.741541     -1.537105     -1.404700
  O      -6.336723      1.509295     -1.187199
  H      -5.798318      2.260717     -1.462405
  H      -6.817383      1.827013     -0.413537
  O      -5.421073      0.196932      1.478452
  H      -5.627044      1.131705      1.610426
  H      -4.644878      0.028581      2.028782
  O      -4.317965     -0.664166     -2.362284
  H      -5.069939     -0.722263     -2.965690
  H      -3.743397      0.019392     -2.731325
33
Coordinates from ORCA-job cu_P1_cplx E -2630.529804046619
  Cu     -4.878852     -0.101409     -0.479625
  C       4.070564     -0.415650      0.153428
  O       2.727818      0.046206      0.006247
  C       1.767280     -0.840250      0.281223
  O       2.017358     -1.977780      0.639854
  C       0.414219     -0.302303      0.104434
  C      -0.667292     -1.146046      0.361085
  C      -1.953844     -0.678155      0.202956
  O      -3.067221     -1.437344      0.435982
  C      -2.209024      0.636235     -0.216625
  O      -3.418742      1.124509     -0.385456
  C      -1.100477      1.464285     -0.467385
  O      -1.345678      2.741236     -0.881424
  C       0.192051      1.013007     -0.311303
  H       4.261452     -0.717209      1.183989
  H       4.702953      0.428139     -0.112377
  H       4.263103     -1.254256     -0.516700
  H      -0.500630     -2.167137      0.684222
  H      -2.824251     -2.354624      0.610731
  H      -2.310650      2.828778     -0.932865
  H       1.017435      1.681558     -0.518178
  O      -6.297735     -1.504477     -0.548003
  H      -6.991618     -1.328417      0.100625
  H      -6.742534     -1.536574     -1.405172
  O      -6.334972      1.510145     -1.187818
  H      -5.796113      2.263305     -1.457169
  H      -6.820556      1.824111     -0.415766
  O      -5.421379      0.197512      1.478052
  H      -5.628319      1.132265      1.608815
  H      -4.645466      0.030363      2.029121
  O      -4.318708     -0.665384     -2.362379
  H      -5.070719     -0.721791     -2.965942
  H      -3.742530      0.016781     -2.731556
33
Coordinates from ORCA-job cu_P1_cplx E -2630.529827751052
  Cu     -4.878826     -0.102451     -0.480745
  C       4.070655     -0.415927      0.152057
  O       2.727819      0.045713      0.005282
  C       1.767264     -0.839736      0.282967
  O       2.017246     -1.976445      0.644269
  C       0.414309     -0.301680      0.105591
  C      -0.667180     -1.145439      0.362208
  C      -1.953855     -0.678194      0.203021
  O      -3.066917     -1.438289      0.435101
  C      -2.209264      0.636013     -0.216852
  O      -3.418884      1.124321     -0.386263
  C      -1.100668      1.464158     -0.467390
  O      -1.346326      2.741038     -0.881252
  C       0.191986      1.013536     -0.310692
  H       4.263203     -0.714316      1.183218
  H       4.702664      0.427033     -0.117302
  H       4.262066     -1.256519     -0.515908
  H      -0.500491     -2.166330      0.686113
  H      -2.823332     -2.355552      0.609100
  H      -2.311253      2.828376     -0.933330
  H       1.017472      1.682081     -0.517172
  O      -6.298664     -1.503975     -0.549339
  H      -6.992726     -1.325919      0.098593
  H      -6.742750     -1.535745     -1.406890
  O      -6.333128      1.510668     -1.187237
  H      -5.793223      2.265354     -1.450171
  H      -6.823778      1.820652     -0.416808
  O      -5.421373      0.197736      1.477736
  H      -5.626558      1.133017      1.607447
  H      -4.646465      0.029288      2.029791
  O      -4.318912     -0.666730     -2.362627
  H      -5.071429     -0.720860     -2.965837
  H      -3.741759      0.014751     -2.731656
33
Coordinates from ORCA-job cu_P1_cplx E -2630.529859502468
  Cu     -4.878964     -0.103405     -0.481558
  C       4.070605     -0.415574      0.151880
  O       2.727736      0.045678      0.004430
  C       1.767248     -0.839305      0.283689
  O       2.017309     -1.975420      0.646814
  C       0.414259     -0.301466      0.105681
  C      -0.667138     -1.145203      0.362706
  C      -1.953922     -0.678301      0.203168
  O      -3.066826     -1.438710      0.435373
  C      -2.209522      0.635696     -0.217234
  O      -3.419148      1.123890     -0.386990
  C      -1.100963      1.463816     -0.468167
  O      -1.346788      2.740529     -0.882489
  C       0.191765      1.013559     -0.311229
  H       4.263540     -0.711571      1.183658
  H       4.702471      0.426815     -0.119613
  H       4.261823     -1.257645     -0.514268
  H      -0.500345     -2.165867      0.687243
  H      -2.823011     -2.355984      0.608960
  H      -2.311709      2.827810     -0.934861
  H       1.017274      1.682024     -0.517871
  O      -6.300091     -1.503084     -0.550198
  H      -6.995251     -1.322573      0.095875
  H      -6.742469     -1.535977     -1.408600
  O      -6.331609      1.511410     -1.186048
  H      -5.790280      2.266773     -1.444100
  H      -6.825646      1.818961     -0.416810
  O      -5.421099      0.197605      1.477667
  H      -5.622272      1.133721      1.607496
  H      -4.647671      0.025432      2.030615
  O      -4.319145     -0.667991     -2.363093
  H      -5.072009     -0.719532     -2.966137
  H      -3.741234      0.013518     -2.730964
33
Coordinates from ORCA-job cu_P1_cplx E -2630.529826444276
  Cu     -4.879015     -0.104329     -0.482552
  C       4.070251     -0.415190      0.151844
  O       2.727422      0.045493      0.002581
  C       1.766963     -0.838850      0.284076
  O       2.017087     -1.974140      0.649709
  C       0.413945     -0.301353      0.105302
  C      -0.667341     -1.144850      0.363419
  C      -1.954203     -0.678093      0.203958
  O      -3.067046     -1.438333      0.437234
  C      -2.209848      0.635583     -0.217450
  O      -3.419535      1.123646     -0.387453
  C      -1.101357      1.463409     -0.469659
  O      -1.347251      2.739682     -0.885364
  C       0.191374      1.013305     -0.312707
  H       4.262923     -0.707586      1.184705
  H       4.702206      0.426261     -0.122365
  H       4.261695     -1.259500     -0.511394
  H      -0.500218     -2.165199      0.688729
  H      -2.823148     -2.355675      0.610426
  H      -2.312206      2.826819     -0.937713
  H       1.016855      1.681523     -0.520204
  O      -6.301610     -1.502026     -0.551841
  H      -6.998444     -1.318902      0.091683
  H      -6.741732     -1.536208     -1.411373
  O      -6.330129      1.512463     -1.183692
  H      -5.787439      2.269117     -1.435083
  H      -6.828757      1.816397     -0.415974
  O      -5.420786      0.196834      1.477248
  H      -5.616027      1.134089      1.607885
  H      -4.649067      0.019186      2.030851
  O      -4.318356     -0.669128     -2.363562
  H      -5.071301     -0.717095     -2.966845
  H      -3.738984      0.012276     -2.729396
33
Coordinates from ORCA-job cu_P1_cplx E -2630.529864508650
  Cu     -4.879197     -0.104489     -0.482698
  C       4.070022     -0.414658      0.152627
  O       2.727206      0.045741      0.002365
  C       1.766804     -0.838888      0.283402
  O       2.017063     -1.974239      0.648746
  C       0.413708     -0.301592      0.104592
  C      -0.667519     -1.144977      0.363242
  C      -1.954397     -0.678100      0.204351
  O      -3.067222     -1.438014      0.438631
  C      -2.210003      0.635481     -0.217407
  O      -3.419725      1.123516     -0.387272
  C      -1.101597      1.463189     -0.470353
  O      -1.347607      2.739270     -0.886586
  C       0.191123      1.013003     -0.313526
  H       4.261744     -0.707210      1.185631
  H       4.702096      0.426957     -0.120800
  H       4.262335     -1.258797     -0.510570
  H      -0.500100     -2.165257      0.688564
  H      -2.823304     -2.355402      0.611558
  H      -2.312630      2.826142     -0.938549
  H       1.016511      1.681194     -0.521491
  O      -6.302164     -1.501799     -0.552325
  H      -6.999425     -1.318478      0.090693
  H      -6.741969     -1.536025     -1.412029
  O      -6.330117      1.512989     -1.182399
  H      -5.786601      2.268581     -1.435209
  H      -6.826807      1.818280     -0.413957
  O      -5.420640      0.196661      1.477211
  H      -5.612711      1.134492      1.608452
  H      -4.649319      0.016354      2.030530
  O      -4.317846     -0.669160     -2.363863
  H      -5.070940     -0.718523     -2.966833
  H      -3.739849      0.013388     -2.729705
33
Coordinates from ORCA-job cu_P1_cplx E -2630.529826539916
  Cu     -4.879677     -0.104929     -0.482709
  C       4.069718     -0.413673      0.153808
  O       2.726884      0.046511      0.002965
  C       1.766620     -0.838858      0.282465
  O       2.017145     -1.974561      0.646483
  C       0.413392     -0.301898      0.103825
  C      -0.667719     -1.145257      0.363109
  C      -1.954630     -0.678322      0.204822
  O      -3.067425     -1.437792      0.440472
  C      -2.210232      0.635059     -0.217554
  O      -3.420071      1.122845     -0.387325
  C      -1.102034      1.462777     -0.471351
  O      -1.348384      2.738510     -0.888394
  C       0.190703      1.012547     -0.314622
  H       4.260211     -0.708199      1.186489
  H       4.701854      0.428687     -0.117174
  H       4.263216     -1.256437     -0.510777
  H      -0.499917     -2.165422      0.688583
  H      -2.823385     -2.355243      0.612967
  H      -2.313519      2.824894     -0.939697
  H       1.015833      1.680894     -0.523243
  O      -6.303444     -1.501498     -0.552466
  H      -7.001565     -1.317360      0.089375
  H      -6.742361     -1.536671     -1.412606
  O      -6.329718      1.514212     -1.180528
  H      -5.784557      2.267899     -1.435486
  H      -6.823123      1.821766     -0.410872
  O      -5.420536      0.196600      1.477073
  H      -5.608436      1.135224      1.608905
  H      -4.649492      0.013076      2.029786
  O      -4.317477     -0.669491     -2.364221
  H      -5.070441     -0.720268     -2.967198
  H      -3.740512      0.014006     -2.729882
33
Coordinates from ORCA-job cu_P1_cplx E -2630.529825326599
  Cu     -4.879696     -0.104961     -0.482702
  C       4.069736     -0.413686      0.153647
  O       2.726883      0.046673      0.003430
  C       1.766628     -0.838887      0.282361
  O       2.017174     -1.974835      0.645613
  C       0.413390     -0.301858      0.104015
  C      -0.667712     -1.145199      0.363389
  C      -1.954628     -0.678303      0.205055
  O      -3.067416     -1.437741      0.440782
  C      -2.210243      0.635011     -0.217487
  O      -3.420089      1.122727     -0.387355
  C      -1.102078      1.462792     -0.471220
  O      -1.348556      2.738465     -0.888337
  C       0.190673      1.012578     -0.314447
  H       4.260320     -0.709401      1.185964
  H       4.701838      0.428983     -0.116446
  H       4.263171     -1.255713     -0.511901
  H      -0.499894     -2.165355      0.688899
  H      -2.823366     -2.355177      0.613299
  H      -2.313713      2.824693     -0.939604
  H       1.015735      1.680964     -0.523153
  O      -6.303532     -1.501526     -0.552517
  H      -7.001849     -1.317216      0.089079
  H      -6.742177     -1.536916     -1.412785
  O      -6.329406      1.514577     -1.180558
  H      -5.783939      2.268543     -1.434045
  H      -6.823307      1.821113     -0.410809
  O      -5.420722      0.196774      1.476871
  H      -5.609785      1.135235      1.608242
  H      -4.649035      0.014657      2.029160
  O      -4.317180     -0.669806     -2.364132
  H      -5.070070     -0.721095     -2.967154
  H      -3.740235      0.013517     -2.730132
33
Coordinates from ORCA-job cu_P1_cplx E -2630.529831551091
  Cu     -4.879826     -0.105178     -0.482744
  C       4.069708     -0.413477      0.153486
  O       2.726768      0.047119      0.004655
  C       1.766612     -0.838909      0.282259
  O       2.017245     -1.975314      0.644044
  C       0.413362     -0.301798      0.104297
  C      -0.667741     -1.145121      0.363957
  C      -1.954648     -0.678379      0.205274
  O      -3.067483     -1.437702      0.441230
  C      -2.210290      0.634745     -0.217858
  O      -3.420166      1.122301     -0.387705
  C      -1.102182      1.462585     -0.471629
  O      -1.348889      2.738096     -0.888998
  C       0.190611      1.012453     -0.314649
  H       4.260559     -0.712072      1.184902
  H       4.701624      0.430017     -0.114432
  H       4.263103     -1.253669     -0.514417
  H      -0.499860     -2.165126      0.689940
  H      -2.823503     -2.355142      0.613857
  H      -2.314058      2.824150     -0.940284
  H       1.015572      1.680887     -0.523564
  O      -6.304248     -1.501353     -0.552593
  H      -7.003954     -1.314977      0.086913
  H      -6.740719     -1.538585     -1.413880
  O      -6.328520      1.515865     -1.179617
  H      -5.781772      2.270816     -1.427381
  H      -6.824253      1.818378     -0.409437
  O      -5.421140      0.197200      1.476719
  H      -5.613558      1.135197      1.606568
  H      -4.647748      0.019121      2.027955
  O      -4.316505     -0.671218     -2.363981
  H      -5.068992     -0.722023     -2.967534
  H      -3.738189      0.010739     -2.730330
33
Coordinates from ORCA-job cu_P1_cplx E -2630.529827864231
  Cu     -4.879945     -0.105529     -0.482838
  C       4.069659     -0.413385      0.153259
  O       2.726697      0.047244      0.004717
  C       1.766550     -0.838734      0.282461
  O       2.017187     -1.975121      0.644313
  C       0.413292     -0.301618      0.104545
  C      -0.667761     -1.145051      0.364041
  C      -1.954700     -0.678435      0.205173
  O      -3.067518     -1.437881      0.440894
  C      -2.210474      0.634652     -0.217938
  O      -3.420381      1.122052     -0.388034
  C      -1.102407      1.462641     -0.471367
  O      -1.349135      2.738195     -0.888635
  C       0.190418      1.012660     -0.314341
  H       4.260815     -0.711928      1.184637
  H       4.701507      0.430083     -0.114900
  H       4.262807     -1.253631     -0.514648
  H      -0.499884     -2.165069      0.690002
  H      -2.823595     -2.355327      0.613526
  H      -2.314283      2.824306     -0.940083
  H       1.015372      1.681152     -0.523098
  O      -6.304647     -1.501375     -0.552446
  H      -7.004693     -1.314027      0.086386
  H      -6.740502     -1.539227     -1.414014
  O      -6.328034      1.516323     -1.179482
  H      -5.780346      2.270609     -1.427191
  H      -6.823004      1.819208     -0.408961
  O      -5.421200      0.197205      1.476727
  H      -5.613073      1.135340      1.606380
  H      -4.647830      0.018746      2.027863
  O      -4.316568     -0.671771     -2.363930
  H      -5.069027     -0.722865     -2.967507
  H      -3.738374      0.010186     -2.730489
33
Coordinates from ORCA-job cu_P1_cplx E -2630.529829645807
  Cu     -4.880150     -0.106059     -0.483031
  C       4.069606     -0.413237      0.152878
  O       2.726627      0.047388      0.004567
  C       1.766499     -0.838412      0.282822
  O       2.017117     -1.974660      0.645138
  C       0.413234     -0.301335      0.104815
  C      -0.667698     -1.144913      0.364251
  C      -1.954692     -0.678513      0.205122
  O      -3.067486     -1.438121      0.440596
  C      -2.210707      0.634478     -0.218088
  O      -3.420680      1.121583     -0.388519
  C      -1.102721      1.462645     -0.471261
  O      -1.349383      2.738201     -0.888660
  C       0.190167      1.012936     -0.314104
  H       4.261226     -0.711177      1.184343
  H       4.701380      0.430038     -0.116072
  H       4.262320     -1.253886     -0.514631
  H      -0.499877     -2.164900      0.690347
  H      -2.823657     -2.355587      0.613217
  H      -2.314464      2.824525     -0.940494
  H       1.015168      1.681429     -0.522729
  O      -6.305483     -1.501240     -0.552492
  H      -7.006415     -1.312155      0.084851
  H      -6.739948     -1.540617     -1.414703
  O      -6.326984      1.517740     -1.179188
  H      -5.777735      2.271630     -1.424635
  H      -6.822148      1.819652     -0.408407
  O      -5.421398      0.196893      1.476880
  H      -5.613124      1.135058      1.606457
  H      -4.647992      0.018217      2.027877
  O      -4.316529     -0.672774     -2.363821
  H      -5.068787     -0.724272     -2.967635
  H      -3.738363      0.009074     -2.730668
33
Coordinates from ORCA-job cu_P1_cplx E -2630.529846014829
  Cu     -4.880286     -0.106196     -0.483063
  C       4.069565     -0.412894      0.153102
  O       2.726540      0.047463      0.004313
  C       1.766459     -0.838324      0.282801
  O       2.017128     -1.974421      0.645542
  C       0.413157     -0.301387      0.104552
  C      -0.667725     -1.145045      0.363906
  C      -1.954743     -0.678659      0.204838
  O      -3.067538     -1.438256      0.440349
  C      -2.210818      0.634327     -0.218353
  O      -3.420834      1.121351     -0.388800
  C      -1.102867      1.462506     -0.471580
  O      -1.349450      2.738092     -0.888948
  C       0.190027      1.012880     -0.314348
  H       4.261126     -0.709910      1.184855
  H       4.701286      0.430219     -0.116501
  H       4.262424     -1.254081     -0.513690
  H      -0.499958     -2.165037      0.689992
  H      -2.823789     -2.355768      0.612852
  H      -2.314506      2.824553     -0.940854
  H       1.015049      1.681371     -0.522885
  O      -6.306011     -1.500975     -0.552362
  H      -7.007719     -1.310651      0.083742
  H      -6.739434     -1.541653     -1.415035
  O      -6.326594      1.518695     -1.178590
  H      -5.776662      2.272215     -1.423634
  H      -6.821303      1.820540     -0.407499
  O      -5.421381      0.196612      1.477071
  H      -5.612488      1.134851      1.606971
  H      -4.648043      0.017233      2.027933
  O      -4.316596     -0.673371     -2.363579
  H      -5.068721     -0.725019     -2.967541
  H      -3.738374      0.008368     -2.730532
33
Coordinates from ORCA-job cu_P1_cplx E -2630.529828527658
  Cu     -4.880378     -0.106061     -0.483093
  C       4.069449     -0.412711      0.153161
  O       2.726421      0.047394      0.003684
  C       1.766390     -0.838249      0.282845
  O       2.017118     -1.974058      0.646426
  C       0.413058     -0.301486      0.104289
  C      -0.667826     -1.145112      0.363790
  C      -1.954845     -0.678695      0.204788
  O      -3.067632     -1.438230      0.440468
  C      -2.210876      0.634324     -0.218431
  O      -3.420913      1.121364     -0.388722
  C      -1.102908      1.462405     -0.471960
  O      -1.349406      2.737970     -0.889385
  C       0.189969      1.012697     -0.314796
  H       4.260886     -0.708318      1.185347
  H       4.701172      0.430068     -0.117467
  H       4.262463     -1.254755     -0.512501
  H      -0.500069     -2.165071      0.689937
  H      -2.823911     -2.355799      0.612766
  H      -2.314458      2.824537     -0.941151
  H       1.015026      1.681106     -0.523462
  O      -6.306158     -1.500788     -0.552624
  H      -7.008485     -1.309960      0.082643
  H      -6.738889     -1.542391     -1.415594
  O      -6.326703      1.519443     -1.177898
  H      -5.776663      2.272641     -1.423680
  H      -6.820457      1.821647     -0.406346
  O      -5.421423      0.196116      1.477252
  H      -5.611824      1.134398      1.607845
  H      -4.648322      0.015761      2.028136
  O      -4.316370     -0.673399     -2.363344
  H      -5.068261     -0.725554     -2.967548
  H      -3.738257      0.008396     -2.730350
