34
Coordinates from ORCA-job pb_P0_cplx E -1183.610376304900
  Pb         -5.36014383547037     -0.28529835026314     -1.65293350757467
  C           2.94088496763617     -2.71519890117881      1.53771498664628
  O           1.67078700445286     -2.09749910816940      1.31610427623654
  C           1.64707726945282     -1.10621644463667      0.42948148277567
  O           2.63629810235528     -0.73470153085692     -0.17110728222527
  C           0.30558484576732     -0.51419018922356      0.26060947416637
  C          -0.79451650156715     -0.99442759980582      0.96462283770951
  C          -2.03434495504337     -0.40676023613613      0.78303164616668
  O          -3.15010358829242     -0.82644081822832      1.44342767106560
  C          -2.17834376413709      0.66121857222718     -0.09836666742339
  O          -3.39932413332256      1.23076834868094     -0.25701710409173
  C          -1.07096119895274      1.12938843171968     -0.80436921087905
  O          -1.31552694574704      2.17121745091612     -1.64184554894164
  C           0.16928928074492      0.54954185573796     -0.62760669277778
  H           3.31556710904663     -3.15869300237154      0.61494920114675
  H           2.76553158703518     -3.48986456573394      2.27991576600732
  H           3.65712731219644     -1.98623597433939      1.91720922856570
  H          -0.69855081358354     -1.82057426808811      1.65782068060326
  H          -2.91982774757524     -1.54451510650562      2.04638433929112
  H          -3.32099862243881      1.97988020026661     -0.86765027049087
  H          -0.50121716435513      2.42812323657839     -2.09084481926884
  H           1.02658757734080      0.91898307053677     -1.17792315600199
  O          -7.77510407605928     -0.61042093713402     -1.34845826689733
  H          -8.21055973511637     -0.39524766744173     -2.18276660635122
  H          -7.94914044616444     -1.55170516240572     -1.21234676759334
  O          -6.13083143735156      2.00381993589136     -1.41617851570052
  H          -5.47492003225695      2.60377664732669     -1.79723366028141
  H          -6.14617279229610      2.21222992730603     -0.47300675695653
  O          -5.80618282389413     -0.12481660918687      0.80845512889718
  H          -6.41420337228998     -0.83283459971866      1.05552919494045
  H          -4.93860336483209     -0.38155933387520      1.17250434166320
  O          -6.40013717831279      0.23806029129196     -3.96376378794772
  H          -6.82680447568718      1.10311789985520     -3.90815649802578
  H          -5.68055631128169      0.35712132696467     -4.59615874645248
