34
Coordinates from ORCA-job pb_P0_cplx E -1183.592977946309
  Pb     -5.429864      0.306625     -0.878012
  C       2.529272     -3.009066      1.650246
  O       1.392927     -2.299229      1.163691
  C       1.613387     -1.126473      0.567757
  O       2.727177     -0.652583      0.429187
  C       0.374120     -0.478701      0.098928
  C      -0.869686     -1.070556      0.297289
  C      -2.016724     -0.438164     -0.155206
  O      -3.256010     -0.980147      0.014440
  C      -1.920015      0.792575     -0.807672
  O      -3.039054      1.424358     -1.257179
  C      -0.662908      1.382162     -1.006203
  O      -0.674923      2.573493     -1.654802
  C       0.478583      0.748142     -0.553349
  H       3.223935     -3.214169      0.834449
  H       2.143710     -3.931618      2.072453
  H       3.045621     -2.419544      2.409135
  H      -0.921272     -2.019831      0.803723
  H      -3.191568     -1.824603      0.489239
  H      -2.767180      2.253747     -1.692500
  H       0.216441      2.928345     -1.770113
  H       1.458186      1.178226     -0.691587
  O      -7.006415     -1.567062     -0.952405
  H      -7.784372     -1.448476     -1.511411
  H      -6.693173     -2.471468     -1.076561
  O      -6.861598      2.267403     -1.218516
  H      -6.529043      3.155929     -1.041251
  H      -7.764047      2.219564     -0.879081
  O      -6.355745      0.481447      1.424846
  H      -6.922556     -0.226060      1.754034
  H      -5.836785      0.824348      2.161371
  O      -5.780755      0.098464     -3.330421
  H      -6.167053      0.852332     -3.791469
  H      -5.114949     -0.299364     -3.903023
34
Coordinates from ORCA-job pb_P0_cplx E -1183.595966709414
  Pb     -5.459835      0.311730     -0.882355
  C       2.573848     -3.000885      1.649565
  O       1.423439     -2.305486      1.170693
  C       1.639828     -1.136123      0.574274
  O       2.751626     -0.663637      0.436240
  C       0.400207     -0.487396      0.107015
  C      -0.845633     -1.074958      0.305562
  C      -1.988556     -0.440072     -0.148232
  O      -3.231469     -0.977592      0.021417
  C      -1.887812      0.786797     -0.801490
  O      -3.004087      1.421341     -1.253386
  C      -0.632127      1.368257     -0.998101
  O      -0.645071      2.557018     -1.648198
  C       0.508428      0.737560     -0.545922
  H       3.262043     -3.207786      0.828778
  H       2.201054     -3.926515      2.079093
  H       3.089151     -2.406772      2.405721
  H      -0.913824     -2.027617      0.814306
  H      -3.170926     -1.815479      0.496017
  H      -2.736204      2.243144     -1.688576
  H       0.249447      2.899517     -1.760285
  H       1.487864      1.176561     -0.691279
  O      -7.062396     -1.574328     -0.963161
  H      -7.835798     -1.452730     -1.524826
  H      -6.751019     -2.477837     -1.087926
  O      -6.908003      2.291383     -1.227371
  H      -6.575133      3.177861     -1.048134
  H      -7.808575      2.243711     -0.887752
  O      -6.417849      0.486834      1.439238
  H      -6.982366     -0.221910      1.763810
  H      -5.902926      0.823128      2.179141
  O      -5.825015      0.106305     -3.360725
  H      -6.204753      0.863082     -3.818718
  H      -5.159898     -0.287061     -3.934406
34
Coordinates from ORCA-job pb_P0_cplx E -1183.597585229937
  Pb     -5.487742      0.316076     -0.885232
  C       2.614440     -2.996340      1.655383
  O       1.454416     -2.309839      1.180856
  C       1.669643     -1.142479      0.582683
  O       2.780440     -0.671870      0.439894
  C       0.429777     -0.494223      0.113092
  C      -0.817658     -1.077657      0.312632
  C      -1.957425     -0.440221     -0.143394
  O      -3.205068     -0.965840      0.023493
  C      -1.855044      0.780469     -0.798283
  O      -2.972262      1.409534     -1.246199
  C      -0.600318      1.355905     -0.996180
  O      -0.613444      2.543982     -1.650426
  C       0.541037      0.728034     -0.543973
  H       3.295168     -3.211411      0.831150
  H       2.249065     -3.921845      2.093446
  H       3.129335     -2.399415      2.408941
  H      -0.906617     -2.029107      0.823493
  H      -3.151492     -1.802723      0.500240
  H      -2.712969      2.231107     -1.685298
  H       0.286513      2.872257     -1.761314
  H       1.515093      1.178050     -0.698969
  O      -7.116768     -1.579099     -0.973344
  H      -7.886224     -1.455258     -1.539077
  H      -6.806990     -2.482230     -1.101123
  O      -6.954525      2.310528     -1.233130
  H      -6.622420      3.195893     -1.049605
  H      -7.853971      2.263289     -0.891824
  O      -6.482517      0.487413      1.454210
  H      -7.041779     -0.227058      1.775805
  H      -5.969782      0.813475      2.200524
  O      -5.870168      0.117459     -3.388649
  H      -6.239906      0.880735     -3.844519
  H      -5.202179     -0.267546     -3.965280
34
Coordinates from ORCA-job pb_P0_cplx E -1183.598224077077
  Pb     -5.513606      0.318949     -0.886582
  C       2.641534     -2.991456      1.674650
  O       1.480689     -2.312079      1.188983
  C       1.698509     -1.152768      0.574903
  O       2.808485     -0.679077      0.435730
  C       0.458284     -0.502512      0.108016
  C      -0.789574     -1.082746      0.311952
  C      -1.928539     -0.442051     -0.143159
  O      -3.180494     -0.954965      0.020300
  C      -1.826634      0.776615     -0.799067
  O      -2.948211      1.397268     -1.238375
  C      -0.571615      1.348896     -1.000525
  O      -0.582822      2.539274     -1.656161
  C       0.570637      0.719221     -0.550801
  H       3.318058     -3.227332      0.853039
  H       2.275174     -3.908000      2.131098
  H       3.156276     -2.383189      2.418700
  H      -0.892666     -2.032682      0.822618
  H      -3.135357     -1.793275      0.496897
  H      -2.700551      2.221526     -1.680635
  H       0.321134      2.856563     -1.769026
  H       1.539519      1.176485     -0.714511
  O      -7.162542     -1.577779     -0.981484
  H      -7.929403     -1.452700     -1.550977
  H      -6.854239     -2.480839     -1.115079
  O      -6.994597      2.320072     -1.232809
  H      -6.663756      3.204829     -1.042844
  H      -7.893371      2.273802     -0.888689
  O      -6.536957      0.481488      1.464979
  H      -7.086378     -0.242183      1.785114
  H      -6.023034      0.793674      2.217302
  O      -5.911312      0.132510     -3.407133
  H      -6.267160      0.905048     -3.859962
  H      -5.237824     -0.240540     -3.986432
34
Coordinates from ORCA-job pb_P0_cplx E -1183.598386628569
  Pb     -5.538166      0.320046     -0.888448
  C       2.664970     -3.008226      1.654707
  O       1.502700     -2.310846      1.198426
  C       1.719696     -1.137786      0.608857
  O       2.832927     -0.683016      0.434628
  C       0.480562     -0.493210      0.131389
  C      -0.766912     -1.073074      0.337314
  C      -1.904565     -0.435019     -0.126106
  O      -3.159869     -0.936865      0.033738
  C      -1.802998      0.778969     -0.792528
  O      -2.929695      1.385572     -1.231969
  C      -0.547702      1.350010     -0.996581
  O      -0.554796      2.537760     -1.661104
  C       0.593750      0.722596     -0.538747
  H       3.326243     -3.235529      0.818485
  H       2.297785     -3.930249      2.099443
  H       3.193545     -2.418210      2.403566
  H      -0.878459     -2.017863      0.854760
  H      -3.124592     -1.773176      0.515688
  H      -2.694629      2.209714     -1.682071
  H       0.351589      2.848170     -1.775178
  H       1.559245      1.184321     -0.707388
  O      -7.199459     -1.573638     -0.978696
  H      -7.962130     -1.453736     -1.555628
  H      -6.891111     -2.477358     -1.110536
  O      -7.029616      2.316275     -1.254326
  H      -6.701681      3.202288     -1.063216
  H      -7.928999      2.273448     -0.910069
  O      -6.592630      0.491073      1.464015
  H      -7.129174     -0.241791      1.787331
  H      -6.077656      0.794316      2.220213
  O      -5.938875      0.126394     -3.419736
  H      -6.276679      0.905842     -3.876104
  H      -5.254962     -0.237153     -3.994102
34
Coordinates from ORCA-job pb_P0_cplx E -1183.598757778765
  Pb     -5.551229      0.320124     -0.888379
  C       2.670118     -2.994721      1.687195
  O       1.512663     -2.310816      1.200840
  C       1.732665     -1.152954      0.582101
  O       2.844787     -0.686954      0.430100
  C       0.492977     -0.504943      0.111402
  C      -0.754137     -1.084973      0.319753
  C      -1.892075     -0.443685     -0.138323
  O      -3.148526     -0.940411      0.021459
  C      -1.792023      0.774485     -0.801346
  O      -2.923344      1.378610     -1.231556
  C      -0.536843      1.345873     -1.006623
  O      -0.541877      2.537287     -1.665147
  C       0.604592      0.713725     -0.553483
  H       3.337818     -3.246069      0.862886
  H       2.298851     -3.902880      2.156103
  H       3.193107     -2.382112      2.421801
  H      -0.864644     -2.031309      0.833892
  H      -3.118252     -1.779769      0.498580
  H      -2.696749      2.206173     -1.679576
  H       0.364703      2.846434     -1.781075
  H       1.569862      1.175421     -0.722581
  O      -7.219773     -1.561591     -0.982164
  H      -7.982463     -1.439047     -1.559083
  H      -6.913637     -2.465164     -1.122114
  O      -7.042249      2.313749     -1.243210
  H      -6.713113      3.198114     -1.045254
  H      -7.940627      2.272371     -0.895248
  O      -6.608310      0.479096      1.465531
  H      -7.134890     -0.262270      1.787067
  H      -6.086168      0.769021      2.222606
  O      -5.962423      0.144670     -3.420529
  H      -6.287587      0.933973     -3.869958
  H      -5.273544     -0.209411     -3.995641
34
Coordinates from ORCA-job pb_P0_cplx E -1183.599015554795
  Pb     -5.558695      0.318605     -0.888217
  C       2.671616     -2.989024      1.696644
  O       1.516187     -2.309104      1.201864
  C       1.736101     -1.156075      0.574383
  O       2.848052     -0.687729      0.427655
  C       0.496037     -0.508301      0.105636
  C      -0.750936     -1.089758      0.314753
  C      -1.888628     -0.448526     -0.142008
  O      -3.144715     -0.944697      0.018560
  C      -1.789415      0.771828     -0.804845
  O      -2.923574      1.373771     -1.232749
  C      -0.535104      1.344644     -1.010092
  O      -0.538345      2.536053     -1.666334
  C       0.605866      0.710834     -0.557400
  H       3.341356     -3.246828      0.875766
  H       2.299073     -3.892190      2.173703
  H       3.195196     -2.368606      2.424460
  H      -0.855517     -2.036882      0.828522
  H      -3.117258     -1.785248      0.493244
  H      -2.702413      2.202862     -1.679873
  H       0.367363      2.847133     -1.782958
  H       1.573019      1.169740     -0.724215
  O      -7.229151     -1.546049     -0.979127
  H      -7.990973     -1.422949     -1.557403
  H      -6.924360     -2.449772     -1.122407
  O      -7.043446      2.303216     -1.243268
  H      -6.712425      3.186278     -1.041843
  H      -7.941464      2.264461     -0.893623
  O      -6.616013      0.476040      1.458854
  H      -7.133168     -0.272602      1.779148
  H      -6.085661      0.757444      2.213706
  O      -5.971679      0.150980     -3.415383
  H      -6.283640      0.948520     -3.859858
  H      -5.275627     -0.198023     -3.985269
34
Coordinates from ORCA-job pb_P0_cplx E -1183.599538554785
  Pb     -5.577973      0.313822     -0.887980
  C       2.683437     -2.980374      1.705255
  O       1.528684     -2.304649      1.206384
  C       1.744991     -1.155509      0.570978
  O       2.856936     -0.686955      0.422721
  C       0.503388     -0.511682      0.103167
  C      -0.743385     -1.097108      0.313898
  C      -1.880334     -0.458294     -0.143145
  O      -3.135455     -0.953063      0.018427
  C      -1.783119      0.763793     -0.808570
  O      -2.923301      1.357375     -1.234394
  C      -0.531810      1.340834     -1.014432
  O      -0.532197      2.530093     -1.669145
  C       0.608757      0.706349     -0.559853
  H       3.353148     -3.243600      0.885653
  H       2.311468     -3.877824      2.192683
  H       3.212647     -2.351106      2.421705
  H      -0.834018     -2.044454      0.829608
  H      -3.114312     -1.795365      0.489405
  H      -2.715300      2.189400     -1.681102
  H       0.371591      2.845776     -1.786426
  H       1.579935      1.159121     -0.721757
  O      -7.258668     -1.503072     -0.968184
  H      -8.016134     -1.378678     -1.552372
  H      -6.956794     -2.407305     -1.117399
  O      -7.046646      2.274219     -1.254168
  H      -6.709245      3.153407     -1.044662
  H      -7.943974      2.243484     -0.901183
  O      -6.646120      0.474793      1.438564
  H      -7.137565     -0.293388      1.754044
  H      -6.092853      0.734036      2.185663
  O      -5.994513      0.161309     -3.404146
  H      -6.267649      0.980618     -3.835162
  H      -5.275956     -0.175960     -3.954048
34
Coordinates from ORCA-job pb_P0_cplx E -1183.599869561649
  Pb     -5.587560      0.309690     -0.887660
  C       2.696013     -2.975954      1.705055
  O       1.538789     -2.301831      1.210233
  C       1.751205     -1.151469      0.575782
  O       2.862670     -0.683606      0.421027
  C       0.508199     -0.512199      0.106431
  C      -0.738046     -1.100618      0.317803
  C      -1.875306     -0.464755     -0.140774
  O      -3.129788     -0.959694      0.020978
  C      -1.779663      0.756397     -0.808593
  O      -2.922233      1.344387     -1.235130
  C      -0.530504      1.336707     -1.015301
  O      -0.531739      2.524118     -1.671498
  C       0.610881      0.704576     -0.558705
  H       3.364349     -3.237290      0.883639
  H       2.326976     -3.873877      2.193681
  H       3.228123     -2.345895      2.418738
  H      -0.821691     -2.047287      0.835833
  H      -3.110113     -1.802626      0.490682
  H      -2.720513      2.177933     -1.681672
  H       0.371152      2.842501     -1.788114
  H       1.583272      1.155497     -0.718616
  O      -7.282828     -1.475223     -0.960308
  H      -8.036216     -1.348055     -1.549351
  H      -6.982421     -2.379719     -1.112586
  O      -7.047621      2.257822     -1.265323
  H      -6.703763      3.133427     -1.050440
  H      -7.944369      2.232450     -0.910144
  O      -6.670760      0.476345      1.425961
  H      -7.146399     -0.304352      1.735100
  H      -6.100803      0.721021      2.165642
  O      -6.009812      0.166441     -3.400104
  H      -6.256440      1.000152     -3.819585
  H      -5.275378     -0.164968     -3.932655
34
Coordinates from ORCA-job pb_P0_cplx E -1183.600427783613
  Pb     -5.594426      0.301726     -0.886583
  C       2.717885     -2.970351      1.699342
  O       1.554444     -2.298046      1.215605
  C       1.760164     -1.142744      0.587797
  O       2.870001     -0.675082      0.421048
  C       0.514605     -0.511257      0.115078
  C      -0.729993     -1.104376      0.327083
  C      -1.869251     -0.474582     -0.134588
  O      -3.122302     -0.972922      0.027430
  C      -1.776598      0.743322     -0.806014
  O      -2.920230      1.324488     -1.236594
  C      -0.530469      1.329045     -1.014113
  O      -0.537161      2.513744     -1.674985
  C       0.613592      0.703828     -0.554580
  H       3.383732     -3.223472      0.873438
  H       2.355485     -3.873486      2.183495
  H       3.251625     -2.343969      2.414944
  H      -0.806347     -2.049550      0.848922
  H      -3.099171     -1.816145      0.496559
  H      -2.723052      2.159761     -1.682147
  H       0.364655      2.836263     -1.789209
  H       1.585799      1.155199     -0.713372
  O      -7.323154     -1.436391     -0.947646
  H      -8.068871     -1.301975     -1.544835
  H      -7.023665     -2.340817     -1.103858
  O      -7.046105      2.237928     -1.285640
  H      -6.689158      3.106409     -1.062429
  H      -7.941474      2.219907     -0.926523
  O      -6.710140      0.481272      1.409333
  H      -7.164688     -0.317345      1.703583
  H      -6.112605      0.704897      2.133791
  O      -6.032052      0.171967     -3.398716
  H      -6.240187      1.026658     -3.796037
  H      -5.273229     -0.153857     -3.899552
34
Coordinates from ORCA-job pb_P0_cplx E -1183.600999430166
  Pb     -5.594753      0.292438     -0.884584
  C       2.739462     -2.965929      1.693882
  O       1.570287     -2.295585      1.219132
  C       1.770951     -1.135785      0.597493
  O       2.878615     -0.665813      0.423753
  C       0.522900     -0.509914      0.122893
  C      -0.719086     -1.106857      0.335699
  C      -1.861802     -0.483370     -0.128190
  O      -3.112877     -0.987766      0.034446
  C      -1.772999      0.730941     -0.802330
  O      -2.915866      1.307399     -1.238425
  C      -0.528839      1.321388     -1.011565
  O      -0.543935      2.504587     -1.677775
  C       0.618774      0.704532     -0.550652
  H       3.403683     -3.210959      0.864498
  H       2.382974     -3.875261      2.171284
  H       3.270830     -2.344537      2.415308
  H      -0.793573     -2.050849      0.860046
  H      -3.080387     -1.830824      0.503823
  H      -2.718519      2.143992     -1.681913
  H       0.357268      2.830331     -1.789085
  H       1.588374      1.160257     -0.711250
  O      -7.367552     -1.404112     -0.934582
  H      -8.104181     -1.260234     -1.540712
  H      -7.066995     -2.307467     -1.095139
  O      -7.046773      2.223393     -1.307254
  H      -6.675004      3.083312     -1.075081
  H      -7.939800      2.210757     -0.942334
  O      -6.752156      0.487885      1.396692
  H      -7.186016     -0.328833      1.671421
  H      -6.125707      0.690489      2.102447
  O      -6.056898      0.176301     -3.402092
  H      -6.228589      1.050881     -3.772260
  H      -5.274149     -0.144741     -3.867565
34
Coordinates from ORCA-job pb_P0_cplx E -1183.601370694151
  Pb     -5.593187      0.282236     -0.882163
  C       2.756247     -2.960691      1.696808
  O       1.585053     -2.294271      1.220299
  C       1.783442     -1.133765      0.598722
  O       2.889081     -0.657683      0.429763
  C       0.533479     -0.510511      0.124094
  C      -0.705361     -1.110918      0.336605
  C      -1.852082     -0.492618     -0.127429
  O      -3.100431     -1.004944      0.036705
  C      -1.767920      0.720598     -0.802190
  O      -2.909949      1.294773     -1.242819
  C      -0.524528      1.314898     -1.010669
  O      -0.547403      2.498679     -1.679171
  C       0.626166      0.704950     -0.549952
  H       3.422855     -3.202128      0.868490
  H       2.402382     -3.873374      2.170174
  H       3.280389     -2.340020      2.423931
  H      -0.781458     -2.054903      0.860890
  H      -3.055534     -1.848061      0.505442
  H      -2.709856      2.132861     -1.682553
  H       0.353136      2.827558     -1.787781
  H       1.591965      1.167560     -0.712783
  O      -7.413069     -1.375343     -0.920293
  H      -8.140076     -1.221307     -1.535574
  H      -7.110619     -2.276756     -1.087364
  O      -7.051813      2.209982     -1.326191
  H      -6.665654      3.060698     -1.084194
  H      -7.941014      2.200886     -0.951958
  O      -6.791419      0.494452      1.385906
  H      -7.199858     -0.342364      1.639498
  H      -6.134923      0.673662      2.070450
  O      -6.087257      0.181904     -3.405364
  H      -6.221509      1.075900     -3.743892
  H      -5.281615     -0.131895     -3.835410
34
Coordinates from ORCA-job pb_P0_cplx E -1183.601606553473
  Pb     -5.586790      0.274405     -0.880353
  C       2.761004     -2.957616      1.699555
  O       1.590342     -2.294308      1.217608
  C       1.787852     -1.133445      0.596601
  O       2.892064     -0.650820      0.438015
  C       0.536944     -0.510963      0.122507
  C      -0.699772     -1.114014      0.332615
  C      -1.849464     -0.498891     -0.130681
  O      -3.094789     -1.020161      0.035208
  C      -1.768617      0.715746     -0.803916
  O      -2.908776      1.292215     -1.248508
  C      -0.524986      1.312403     -1.009165
  O      -0.551985      2.497609     -1.676604
  C       0.627163      0.706258     -0.548905
  H       3.432831     -3.194139      0.874084
  H       2.407813     -3.873272      2.167713
  H       3.276627     -2.336927      2.432724
  H      -0.778203     -2.059065      0.854816
  H      -3.038743     -1.863060      0.503341
  H      -2.701764      2.130761     -1.684358
  H       0.347520      2.829865     -1.783692
  H       1.590046      1.174877     -0.711995
  O      -7.437432     -1.361607     -0.909600
  H      -8.157490     -1.200288     -1.531370
  H      -7.133865     -2.261564     -1.081066
  O      -7.051185      2.202595     -1.337112
  H      -6.655937      3.047301     -1.089802
  H      -7.936604      2.194692     -0.953826
  O      -6.804744      0.502032      1.379628
  H      -7.196444     -0.347156      1.618063
  H      -6.129830      0.667711      2.048831
  O      -6.102850      0.181268     -3.404880
  H      -6.216115      1.086428     -3.720727
  H      -5.286160     -0.128823     -3.814723
34
Coordinates from ORCA-job pb_P0_cplx E -1183.601657562892
  Pb     -5.584643      0.268860     -0.879171
  C       2.763641     -2.956658      1.699952
  O       1.594022     -2.295153      1.213805
  C       1.790585     -1.133357      0.594664
  O       2.893853     -0.645750      0.445003
  C       0.539073     -0.511360      0.121619
  C      -0.696604     -1.116483      0.329308
  C      -1.847829     -0.503023     -0.133362
  O      -3.090984     -1.029982      0.033041
  C      -1.769396      0.713663     -0.804962
  O      -2.908747      1.291711     -1.251465
  C      -0.525746      1.312105     -1.006641
  O      -0.553540      2.498745     -1.671402
  C       0.626912      0.707356     -0.546442
  H       3.439734     -3.188707      0.876626
  H       2.410590     -3.874287      2.164161
  H       3.273686     -2.335571      2.436768
  H      -0.776840     -2.062770      0.849149
  H      -3.029626     -1.872650      0.500824
  H      -2.696767      2.130294     -1.684981
  H       0.345020      2.833266     -1.778682
  H       1.587757      1.180620     -0.708955
  O      -7.453773     -1.354077     -0.902764
  H      -8.167799     -1.188420     -1.530426
  H      -7.151133     -2.253771     -1.076876
  O      -7.051043      2.197778     -1.344837
  H      -6.651377      3.039548     -1.094837
  H      -7.933177      2.191066     -0.953558
  O      -6.810618      0.511316      1.374815
  H      -7.190355     -0.345931      1.604915
  H      -6.126193      0.668054      2.036702
  O      -6.111156      0.176490     -3.402631
  H      -6.210505      1.088216     -3.704881
  H      -5.289362     -0.131089     -3.804453
34
Coordinates from ORCA-job pb_P0_cplx E -1183.601778290948
  Pb     -5.576579      0.260994     -0.877368
  C       2.761170     -2.958895      1.693380
  O       1.592784     -2.297730      1.204642
  C       1.787802     -1.131441      0.594373
  O       2.889753     -0.637069      0.457544
  C       0.535822     -0.509720      0.122580
  C      -0.698960     -1.117713      0.324957
  C      -1.851893     -0.505976     -0.136789
  O      -3.091646     -1.042340      0.029245
  C      -1.776266      0.714158     -0.804290
  O      -2.913081      1.297095     -1.254229
  C      -0.532529      1.315066     -0.999475
  O      -0.560905      2.503992     -1.658952
  C       0.620620      0.711658     -0.539374
  H       3.444025     -3.179376      0.872362
  H       2.408607     -3.881956      2.146758
  H       3.263280     -2.341150      2.438540
  H      -0.782089     -2.066417      0.840226
  H      -3.023191     -1.884185      0.497418
  H      -2.690254      2.134543     -1.684854
  H       0.336148      2.841693     -1.767653
  H       1.578659      1.191630     -0.699992
  O      -7.464262     -1.354591     -0.895048
  H      -8.169260     -1.183558     -1.531526
  H      -7.164151     -2.254802     -1.069966
  O      -7.043130      2.195731     -1.353857
  H      -6.639708      3.035616     -1.103958
  H      -7.919896      2.189713     -0.950237
  O      -6.800904      0.530159      1.370835
  H      -7.173106     -0.332632      1.591562
  H      -6.111745      0.682963      2.028090
  O      -6.108137      0.159082     -3.397421
  H      -6.201192      1.075350     -3.687033
  H      -5.288125     -0.149843     -3.800463
34
Coordinates from ORCA-job pb_P0_cplx E -1183.601912393872
  Pb     -5.578232      0.251604     -0.875690
  C       2.762959     -2.960640      1.688612
  O       1.595929     -2.300286      1.196377
  C       1.789240     -1.129180      0.595462
  O       2.890001     -0.628876      0.469918
  C       0.537055     -0.508907      0.123485
  C      -0.697146     -1.120803      0.319652
  C      -1.850686     -0.510113     -0.141507
  O      -3.088104     -1.051995      0.020909
  C      -1.778086      0.714107     -0.803825
  O      -2.915074      1.298360     -1.253518
  C      -0.535290      1.318496     -0.992444
  O      -0.562723      2.510136     -1.644972
  C       0.618250      0.715217     -0.531964
  H       3.452306     -3.171979      0.870476
  H       2.410542     -3.887501      2.133905
  H       3.258953     -2.344722      2.439506
  H      -0.781841     -2.072097      0.830029
  H      -3.018918     -1.893993      0.488389
  H      -2.687315      2.135640     -1.682114
  H       0.333215      2.849263     -1.756998
  H       1.573699      1.201757     -0.689462
  O      -7.483850     -1.349957     -0.888071
  H      -8.176199     -1.173189     -1.536891
  H      -7.189281     -2.251874     -1.065336
  O      -7.040171      2.190151     -1.363658
  H      -6.634036      3.028922     -1.112855
  H      -7.909559      2.186250     -0.943548
  O      -6.798474      0.552863      1.365727
  H      -7.158898     -0.317711      1.579067
  H      -6.106104      0.696826      2.023018
  O      -6.110780      0.140001     -3.391371
  H      -6.191224      1.061941     -3.668717
  H      -5.292499     -0.167664     -3.801565
34
Coordinates from ORCA-job pb_P0_cplx E -1183.602062086613
  Pb     -5.575666      0.241576     -0.873968
  C       2.758844     -2.964261      1.679013
  O       1.591884     -2.303325      1.187123
  C       1.783802     -1.125227      0.599953
  O       2.883663     -0.621019      0.481767
  C       0.532106     -0.506042      0.125950
  C      -0.701950     -1.121589      0.314366
  C      -1.855271     -0.510964     -0.146662
  O      -3.091124     -1.057855      0.008607
  C      -1.784147      0.717116     -0.801106
  O      -2.920591      1.304128     -1.249795
  C      -0.542402      1.324977     -0.983267
  O      -0.570017      2.519544     -1.628525
  C       0.611499      0.721422     -0.522805
  H       3.453908     -3.164626      0.862921
  H       2.407279     -3.896447      2.113595
  H       3.249826     -2.353635      2.437523
  H      -0.786969     -2.075885      0.819140
  H      -3.022995     -1.900431      0.475189
  H      -2.687824      2.141029     -1.676826
  H       0.325394      2.858585     -1.744598
  H       1.565338      1.212666     -0.675750
  O      -7.490331     -1.355918     -0.885016
  H      -8.168679     -1.172381     -1.546554
  H      -7.202427     -2.260278     -1.062121
  O      -7.028442      2.188937     -1.368965
  H      -6.621109      3.028420     -1.120994
  H      -7.888878      2.185136     -0.930756
  O      -6.778334      0.578149      1.366829
  H      -7.140981     -0.292471      1.574527
  H      -6.092498      0.723362      2.030767
  O      -6.098856      0.112375     -3.385239
  H      -6.183536      1.034831     -3.658112
  H      -5.292857     -0.199853     -3.816185
34
Coordinates from ORCA-job pb_P0_cplx E -1183.602216498829
  Pb     -5.581891      0.231068     -0.872424
  C       2.761981     -2.964726      1.673711
  O       1.593411     -2.304660      1.183637
  C       1.783952     -1.122145      0.604471
  O       2.883276     -0.616895      0.485776
  C       0.532442     -0.504535      0.128036
  C      -0.701167     -1.123788      0.311048
  C      -1.853564     -0.512793     -0.150522
  O      -3.090147     -1.059129     -0.005543
  C      -1.782991      0.717857     -0.797655
  O      -2.921825      1.302039     -1.242214
  C      -0.543062      1.329645     -0.976517
  O      -0.572134      2.526891     -1.616522
  C       0.611349      0.725787     -0.516350
  H       3.458117     -3.162404      0.857933
  H       2.411918     -3.898722      2.105783
  H       3.252584     -2.356200      2.434070
  H      -0.783071     -2.080438      0.811678
  H      -3.028163     -1.903783      0.458280
  H      -2.694439      2.140647     -1.668791
  H       0.323898      2.863443     -1.735807
  H       1.565211      1.218105     -0.664777
  O      -7.505349     -1.352272     -0.884031
  H      -8.167745     -1.160549     -1.559538
  H      -7.223914     -2.258917     -1.062313
  O      -7.021774      2.182941     -1.374562
  H      -6.611421      3.021670     -1.127165
  H      -7.872944      2.179486     -0.918308
  O      -6.775422      0.598664      1.370086
  H      -7.139744     -0.272713      1.572903
  H      -6.095291      0.740165      2.041268
  O      -6.095853      0.092117     -3.383024
  H      -6.179264      1.016108     -3.651790
  H      -5.299304     -0.221916     -3.830801
34
Coordinates from ORCA-job pb_P0_cplx E -1183.602374022180
  Pb     -5.587105      0.218947     -0.870503
  C       2.767039     -2.963520      1.667940
  O       1.595341     -2.304826      1.182405
  C       1.784117     -1.119796      0.606842
  O       2.882836     -0.614614      0.483473
  C       0.531963     -0.503139      0.129925
  C      -0.700358     -1.126515      0.308696
  C      -1.852174     -0.515177     -0.153176
  O      -3.090194     -1.060344     -0.019921
  C      -1.781650      0.717909     -0.792361
  O      -2.923387      1.297639     -1.232595
  C      -0.543636      1.334262     -0.968777
  O      -0.576521      2.534853     -1.604053
  C       0.611424      0.730704     -0.509955
  H       3.460227     -3.162807      0.850176
  H       2.419574     -3.897882      2.101757
  H       3.260008     -2.355913      2.427334
  H      -0.776397     -2.085762      0.804943
  H      -3.033917     -1.907871      0.439643
  H      -2.705707      2.139203     -1.658294
  H       0.320624      2.868880     -1.723708
  H       1.566616      1.221461     -0.653118
  O      -7.520396     -1.345165     -0.883411
  H      -8.163937     -1.142458     -1.574203
  H      -7.243979     -2.253568     -1.061649
  O      -7.011570      2.175157     -1.381762
  H      -6.594616      3.011119     -1.135216
  H      -7.852596      2.170691     -0.906867
  O      -6.777096      0.617992      1.377228
  H      -7.149654     -0.250993      1.574117
  H      -6.102869      0.756806      2.054518
  O      -6.091760      0.072762     -3.384040
  H      -6.177548      0.997198     -3.649849
  H      -5.305045     -0.245186     -3.845513
34
Coordinates from ORCA-job pb_P0_cplx E -1183.602493679153
  Pb     -5.590972      0.206440     -0.868425
  C       2.774573     -2.960882      1.663636
  O       1.600317     -2.304164      1.181327
  C       1.786750     -1.118581      0.605345
  O       2.884513     -0.612073      0.479782
  C       0.532969     -0.502850      0.130394
  C      -0.697100     -1.131330      0.305139
  C      -1.849407     -0.520396     -0.155959
  O      -3.087935     -1.066358     -0.031513
  C      -1.780240      0.716115     -0.787858
  O      -2.924885      1.291244     -1.224830
  C      -0.544045      1.337528     -0.960681
  O      -0.581093      2.542031     -1.590621
  C       0.611766      0.734942     -0.503625
  H       3.464269     -3.162726      0.843637
  H       2.429739     -3.894910      2.100600
  H       3.269165     -2.352404      2.421148
  H      -0.767177     -2.093416      0.796476
  H      -3.033935     -1.916796      0.422989
  H      -2.717224      2.136368     -1.648100
  H       0.316630      2.876048     -1.707189
  H       1.568006      1.224882     -0.641205
  O      -7.539876     -1.331771     -0.879512
  H      -8.163548     -1.117550     -1.585503
  H      -7.266639     -2.241291     -1.057176
  O      -7.002152      2.165466     -1.392826
  H      -6.574946      2.996350     -1.146450
  H      -7.833115      2.160211     -0.900013
  O      -6.786492      0.636244      1.382546
  H      -7.166034     -0.231028      1.573155
  H      -6.113096      0.768902      2.061261
  O      -6.092959      0.057077     -3.386211
  H      -6.177068      0.982963     -3.647315
  H      -5.311100     -0.264237     -3.852397
34
Coordinates from ORCA-job pb_P0_cplx E -1183.602588962432
  Pb     -5.592225      0.196063     -0.866785
  C       2.781010     -2.957021      1.663236
  O       1.605754     -2.302152      1.181254
  C       1.790413     -1.118320      0.600761
  O       2.887425     -0.610401      0.474795
  C       0.534831     -0.503650      0.128391
  C      -0.692766     -1.137150      0.299383
  C      -1.846158     -0.526965     -0.160088
  O      -3.084055     -1.075614     -0.040588
  C      -1.779466      0.713529     -0.785814
  O      -2.926676      1.285235     -1.219876
  C      -0.544700      1.339280     -0.954579
  O      -0.584782      2.547429     -1.579285
  C       0.611863      0.737598     -0.499616
  H       3.467987     -3.162317      0.841838
  H       2.437559     -3.889746      2.104222
  H       3.276176     -2.346033      2.418304
  H      -0.758485     -2.101857      0.786039
  H      -3.028932     -1.928980      0.408142
  H      -2.727749      2.134286     -1.638873
  H       0.312901      2.883684     -1.690102
  H       1.568628      1.227777     -0.632240
  O      -7.558196     -1.317577     -0.874721
  H      -8.164043     -1.092386     -1.592805
  H      -7.286515     -2.227646     -1.051156
  O      -6.994150      2.157806     -1.402676
  H      -6.555330      2.982616     -1.156730
  H      -7.816034      2.150808     -0.895054
  O      -6.796606      0.648564      1.386761
  H      -7.185517     -0.215019      1.573832
  H      -6.121314      0.774311      2.064439
  O      -6.096600      0.047373     -3.388416
  H      -6.180341      0.973601     -3.647749
  H      -5.316247     -0.277076     -3.854218
34
Coordinates from ORCA-job pb_P0_cplx E -1183.602708583451
  Pb     -5.592236      0.184148     -0.865535
  C       2.789356     -2.950837      1.665864
  O       1.613901     -2.298921      1.181254
  C       1.796177     -1.117657      0.595025
  O       2.892141     -0.606967      0.471047
  C       0.538487     -0.505695      0.124540
  C      -0.686185     -1.145734      0.289887
  C      -1.841425     -0.537479     -0.167496
  O      -3.076884     -1.092368     -0.051328
  C      -1.779530      0.708261     -0.785910
  O      -2.929352      1.277118     -1.216768
  C      -0.546692      1.339426     -0.948474
  O      -0.589344      2.551800     -1.565644
  C       0.611200      0.739350     -0.495671
  H       3.476053     -3.157577      0.844562
  H       2.447084     -3.882631      2.109664
  H       3.282537     -2.336229      2.419335
  H      -0.748993     -2.113586      0.770690
  H      -3.017058     -1.949311      0.389678
  H      -2.737792      2.131325     -1.627999
  H       0.307236      2.893568     -1.667880
  H       1.567021      1.233068     -0.622641
  O      -7.584843     -1.296733     -0.866926
  H      -8.168979     -1.058330     -1.598922
  H      -7.315636     -2.207628     -1.042362
  O      -6.985350      2.149692     -1.414745
  H      -6.530815      2.965972     -1.169014
  H      -7.795607      2.141211     -0.888790
  O      -6.807480      0.661159      1.387237
  H      -7.207502     -0.197737      1.572088
  H      -6.126615      0.774570      2.061213
  O      -6.105314      0.038496     -3.388678
  H      -6.186085      0.965163     -3.647047
  H      -5.323818     -0.288859     -3.850231
34
Coordinates from ORCA-job pb_P0_cplx E -1183.602799659080
  Pb     -5.590893      0.171309     -0.865888
  C       2.799040     -2.942717      1.670260
  O       1.623363     -2.294993      1.181373
  C       1.802371     -1.115702      0.590826
  O       2.896845     -0.600931      0.469974
  C       0.542616     -0.508458      0.120260
  C      -0.678976     -1.156476      0.277328
  C      -1.836429     -0.551409     -0.178435
  O      -3.067905     -1.115593     -0.065560
  C      -1.781232      0.700200     -0.787987
  O      -2.933550      1.266607     -1.215658
  C      -0.551117      1.338316     -0.941997
  O      -0.596126      2.555304     -1.549151
  C       0.608675      0.740761     -0.490578
  H       3.488469     -3.147091      0.850586
  H       2.458421     -3.874973      2.114127
  H       3.287697     -2.324613      2.423930
  H      -0.740309     -2.128022      0.750992
  H      -3.000800     -1.976745      0.365841
  H      -2.747377      2.127199     -1.615495
  H       0.298173      2.905927     -1.639740
  H       1.561792      1.241687     -0.610886
  O      -7.617893     -1.270649     -0.857594
  H      -8.176590     -1.017416     -1.604394
  H      -7.354019     -2.183236     -1.031709
  O      -6.973964      2.143175     -1.427098
  H      -6.500762      2.949234     -1.182768
  H      -7.769338      2.133598     -0.879096
  O      -6.811642      0.673315      1.383525
  H      -7.229681     -0.176424      1.570325
  H      -6.124464      0.771067      2.053614
  O      -6.116451      0.027994     -3.385957
  H      -6.196035      0.953294     -3.649180
  H      -5.334248     -0.303493     -3.843765
34
Coordinates from ORCA-job pb_P0_cplx E -1183.602902493317
  Pb     -5.588897      0.162440     -0.867907
  C       2.805518     -2.937991      1.671218
  O       1.629456     -2.292397      1.180651
  C       1.805897     -1.112808      0.590550
  O       2.899214     -0.594894      0.471710
  C       0.545007     -0.509375      0.119138
  C      -0.674625     -1.163402      0.268994
  C      -1.833637     -0.561538     -0.186536
  O      -3.061231     -1.134515     -0.076916
  C      -1.784196      0.694124     -0.789335
  O      -2.938040      1.258640     -1.216201
  C      -0.556646      1.338288     -0.935740
  O      -0.603040      2.558240     -1.534665
  C       0.604871      0.742915     -0.484447
  H       3.498392     -3.136866      0.853034
  H       2.466159     -3.872152      2.111742
  H       3.290752     -2.319456      2.426851
  H      -0.736105     -2.137925      0.736687
  H      -2.987561     -1.998983      0.346598
  H      -2.753726      2.124502     -1.605419
  H       0.288650      2.917712     -1.614561
  H       1.554581      1.251636     -0.600176
  O      -7.643034     -1.250493     -0.850910
  H      -8.181281     -0.986904     -1.608655
  H      -7.386185     -2.165390     -1.022357
  O      -6.963650      2.141126     -1.436019
  H      -6.476628      2.939999     -1.195417
  H      -7.746100      2.131289     -0.869885
  O      -6.804459      0.680965      1.375862
  H      -7.245280     -0.155242      1.571652
  H      -6.115614      0.767549      2.046006
  O      -6.122060      0.015409     -3.379764
  H      -6.207036      0.936001     -3.657546
  H      -5.341805     -0.320461     -3.838211
34
Coordinates from ORCA-job pb_P0_cplx E -1183.603020562626
  Pb     -5.587695      0.152903     -0.871346
  C       2.812781     -2.936039      1.665797
  O       1.634948     -2.291889      1.177201
  C       1.807825     -1.108040      0.595055
  O       2.899421     -0.585689      0.479081
  C       0.546048     -0.508254      0.122469
  C      -0.671713     -1.168631      0.263704
  C      -1.832147     -0.570486     -0.192647
  O      -3.055822     -1.152781     -0.089273
  C      -1.788255      0.688689     -0.787800
  O      -2.943095      1.250669     -1.216315
  C      -0.563880      1.340159     -0.925593
  O      -0.612617      2.562642     -1.516257
  C       0.599553      0.747454     -0.473564
  H       3.509975     -3.124166      0.848695
  H       2.476098     -3.874906      2.098042
  H       3.294437     -2.320807      2.426485
  H      -0.733141     -2.146422      0.724653
  H      -2.976108     -2.020429      0.326618
  H      -2.758656      2.121854     -1.593886
  H       0.276048      2.931600     -1.585301
  H       1.544780      1.265571     -0.584930
  O      -7.669608     -1.228843     -0.844600
  H      -8.184923     -0.957065     -1.615646
  H      -7.423657     -2.147562     -1.012140
  O      -6.951868      2.139895     -1.446645
  H      -6.452171      2.932832     -1.211927
  H      -7.718833      2.132487     -0.858915
  O      -6.787740      0.691908      1.362177
  H      -7.257367     -0.124993      1.573077
  H      -6.101271      0.767807      2.036511
  O      -6.124676     -0.006893     -3.369278
  H      -6.219251      0.905638     -3.670247
  H      -5.349761     -0.348165     -3.833231
34
Coordinates from ORCA-job pb_P0_cplx E -1183.603081733465
  Pb     -5.587330      0.148023     -0.874707
  C       2.817673     -2.936317      1.658828
  O       1.637541     -2.293440      1.173452
  C       1.807443     -1.104265      0.601181
  O       2.897352     -0.577740      0.488516
  C       0.545212     -0.506471      0.127351
  C      -0.671205     -1.170715      0.263009
  C      -1.832422     -0.574754     -0.194511
  O      -3.054658     -1.161265     -0.096849
  C      -1.790552      0.685651     -0.785163
  O      -2.945305      1.245936     -1.216604
  C      -0.568083      1.341917     -0.917984
  O      -0.619870      2.565547     -1.505250
  C       0.596303      0.751448     -0.464763
  H       3.517731     -3.115227      0.842134
  H       2.484171     -3.879931      2.083157
  H       3.296196     -2.325457      2.424974
  H      -0.731265     -2.150220      0.720427
  H      -2.972414     -2.030489      0.315436
  H      -2.760006      2.120193     -1.587112
  H       0.267199      2.939659     -1.567676
  H       1.538953      1.274646     -0.573435
  O      -7.683507     -1.216346     -0.843021
  H      -8.186410     -0.942162     -1.621152
  H      -7.446161     -2.138008     -1.007535
  O      -6.944722      2.141206     -1.451351
  H      -6.439160      2.931955     -1.221594
  H      -7.701951      2.137494     -0.850881
  O      -6.771252      0.697856      1.351919
  H      -7.263279     -0.102339      1.575983
  H      -6.089112      0.769463      2.031561
  O      -6.124592     -0.024908     -3.362441
  H      -6.229693      0.879748     -3.683454
  H      -5.355167     -0.370643     -3.832418
34
Coordinates from ORCA-job pb_P0_cplx E -1183.603112440680
  Pb     -5.587286      0.145227     -0.877278
  C       2.820727     -2.937185      1.653560
  O       1.639083     -2.295779      1.169476
  C       1.806810     -1.101686      0.606401
  O       2.895168     -0.570966      0.499233
  C       0.544356     -0.504912      0.131220
  C      -0.670864     -1.171607      0.263192
  C      -1.832503     -0.576807     -0.195470
  O      -3.054636     -1.164599     -0.102282
  C      -1.790626      0.684019     -0.783429
  O      -2.944778      1.243414     -1.217658
  C      -0.569036      1.343200     -0.913138
  O      -0.623970      2.567605     -1.499517
  C       0.595563      0.754623     -0.458628
  H       3.523389     -3.109170      0.837673
  H       2.489917     -3.884833      2.071144
  H       3.295085     -2.330103      2.425207
  H      -0.728592     -2.151931      0.719023
  H      -2.971652     -2.034262      0.309153
  H      -2.758803      2.119294     -1.584321
  H       0.262583      2.943760     -1.558460
  H       1.537391      1.279558     -0.564757
  O      -7.691019     -1.208668     -0.842559
  H      -8.188930     -0.935278     -1.624580
  H      -7.458870     -2.132115     -1.005749
  O      -6.942043      2.141717     -1.452834
  H      -6.433838      2.931805     -1.225952
  H      -7.693627      2.142462     -0.844909
  O      -6.760236      0.701883      1.346324
  H      -7.264607     -0.088510      1.577464
  H      -6.080641      0.771286      2.028727
  O      -6.126926     -0.037659     -3.360517
  H      -6.238179      0.862380     -3.692209
  H      -5.360751     -0.386116     -3.833524
34
Coordinates from ORCA-job pb_P0_cplx E -1183.603137557924
  Pb     -5.587080      0.145572     -0.880367
  C       2.821416     -2.937850      1.651936
  O       1.639418     -2.298013      1.166478
  C       1.806003     -1.100025      0.610809
  O       2.893121     -0.565569      0.510662
  C       0.543713     -0.503699      0.133659
  C      -0.670687     -1.171418      0.263787
  C      -1.832294     -0.577218     -0.196496
  O      -3.055076     -1.164483     -0.106357
  C      -1.788813      0.683288     -0.784078
  O      -2.941869      1.242636     -1.221441
  C      -0.567191      1.343599     -0.912140
  O      -0.624650      2.568143     -1.499869
  C       0.596954      0.756517     -0.455954
  H       3.526903     -3.105520      0.837644
  H       2.492283     -3.888396      2.064487
  H       3.290844     -2.333337      2.428514
  H      -0.725526     -2.151616      0.720082
  H      -2.972363     -2.033806      0.306040
  H      -2.755292      2.119503     -1.585557
  H       0.261949      2.944820     -1.556381
  H       1.539458      1.280396     -0.559829
  O      -7.692118     -1.204028     -0.844275
  H      -8.192902     -0.934143     -1.625333
  H      -7.462742     -2.128297     -1.006998
  O      -6.943426      2.143133     -1.448552
  H      -6.434964      2.933741     -1.224011
  H      -7.693052      2.148885     -0.838356
  O      -6.750509      0.699345      1.343844
  H      -7.263954     -0.083549      1.580685
  H      -6.072105      0.768181      2.027498
  O      -6.131962     -0.044392     -3.362393
  H      -6.249056      0.851947     -3.702091
  H      -5.366772     -0.394301     -3.835620
34
Coordinates from ORCA-job pb_P0_cplx E -1183.603154935764
  Pb     -5.586594      0.142828     -0.884108
  C       2.821697     -2.937310      1.653293
  O       1.640628     -2.299510      1.163123
  C       1.806309     -1.098029      0.614476
  O       2.892091     -0.559193      0.524323
  C       0.544365     -0.502794      0.134331
  C      -0.668852     -1.172886      0.259887
  C      -1.830277     -0.579515     -0.202307
  O      -3.052815     -1.167972     -0.116522
  C      -1.786144      0.682179     -0.787042
  O      -2.938442      1.241159     -1.226554
  C      -0.564882      1.344521     -0.910684
  O      -0.624327      2.570477     -1.496885
  C       0.598765      0.758986     -0.452597
  H       3.531884     -3.100548      0.842217
  H       2.493423     -3.890530      2.060489
  H       3.283949     -2.334475      2.435413
  H      -0.720866     -2.153817      0.714870
  H      -2.969607     -2.037278      0.295829
  H      -2.752348      2.119935     -1.586222
  H       0.261987      2.948523     -1.549432
  H       1.541938      1.282471     -0.551586
  O      -7.698280     -1.194171     -0.842923
  H      -8.199055     -0.926573     -1.625959
  H      -7.471419     -2.119272     -1.005716
  O      -6.944657      2.140516     -1.445322
  H      -6.432274      2.929707     -1.223332
  H      -7.688811      2.151912     -0.827783
  O      -6.740869      0.700022      1.342983
  H      -7.261759     -0.076891      1.582363
  H      -6.061050      0.764724      2.025393
  O      -6.143694     -0.053561     -3.366147
  H      -6.263755      0.840903     -3.709219
  H      -5.378603     -0.404491     -3.838623
34
Coordinates from ORCA-job pb_P0_cplx E -1183.603184953468
  Pb     -5.585685      0.143264     -0.889289
  C       2.819442     -2.936274      1.659255
  O       1.640563     -2.300000      1.162297
  C       1.806633     -1.096724      0.617725
  O       2.891730     -0.555062      0.536752
  C       0.545665     -0.502327      0.133768
  C      -0.667244     -1.173418      0.255686
  C      -1.827786     -0.580501     -0.209260
  O      -3.050069     -1.169850     -0.126483
  C      -1.782454      0.681959     -0.793394
  O      -2.933694      1.241242     -1.235477
  C      -0.560941      1.344696     -0.913055
  O      -0.619872      2.571275     -1.498857
  C       0.601622      0.759933     -0.452087
  H       3.534571     -3.097391      0.852100
  H       2.490458     -3.890657      2.063169
  H       3.275062     -2.333498      2.445299
  H      -0.718109     -2.154496      0.710481
  H      -2.967038     -2.038662      0.286841
  H      -2.747835      2.121657     -1.590983
  H       0.266150      2.950549     -1.546904
  H       1.545999      1.282053     -0.546754
  O      -7.699216     -1.186409     -0.843876
  H      -8.206213     -0.922434     -1.623479
  H      -7.472932     -2.111636     -1.006329
  O      -6.949012      2.139265     -1.436086
  H      -6.433739      2.927603     -1.218011
  H      -7.690175      2.155628     -0.815231
  O      -6.729774      0.692990      1.344417
  H      -7.258196     -0.077872      1.587254
  H      -6.047877      0.754574      2.025009
  O      -6.158115     -0.057088     -3.372349
  H      -6.282696      0.835237     -3.719426
  H      -5.391563     -0.407580     -3.842697
34
Coordinates from ORCA-job pb_P0_cplx E -1183.603207767083
  Pb     -5.584669      0.139578     -0.896083
  C       2.817834     -2.934920      1.665460
  O       1.641430     -2.299827      1.161579
  C       1.807724     -1.094555      0.621893
  O       2.892055     -0.549901      0.550585
  C       0.547910     -0.501480      0.133726
  C      -0.664513     -1.175068      0.248347
  C      -1.823888     -0.582954     -0.220022
  O      -3.044716     -1.175842     -0.143402
  C      -1.778893      0.681816     -0.800271
  O      -2.929306      1.240474     -1.244917
  C      -0.557950      1.346501     -0.912274
  O      -0.615336      2.574871     -1.494146
  C       0.603625      0.762361     -0.448040
  H       3.538664     -3.092582      0.862660
  H       2.487818     -3.890679      2.065147
  H       3.266679     -2.332375      2.455611
  H      -0.715744     -2.157638      0.699982
  H      -2.961376     -2.044565      0.269802
  H      -2.744144      2.123590     -1.593786
  H       0.269811      2.956784     -1.535461
  H       1.548193      1.285435     -0.536258
  O      -7.707531     -1.172035     -0.842216
  H      -8.214966     -0.909883     -1.622731
  H      -7.482866     -2.098042     -1.003148
  O      -6.951850      2.133682     -1.429491
  H      -6.428932      2.918973     -1.217832
  H      -7.684142      2.155706     -0.797872
  O      -6.715139      0.691599      1.345497
  H      -7.252593     -0.072135      1.590221
  H      -6.030418      0.746087      2.023701
  O      -6.178139     -0.067943     -3.378991
  H      -6.306015      0.822826     -3.728424
  H      -5.410960     -0.417811     -3.848820
34
Coordinates from ORCA-job pb_P0_cplx E -1183.603241793315
  Pb     -5.583884      0.134895     -0.905893
  C       2.816553     -2.933122      1.672743
  O       1.642234     -2.298975      1.163021
  C       1.808712     -1.091961      0.627932
  O       2.892387     -0.544814      0.564706
  C       0.550380     -0.500468      0.135050
  C      -0.661767     -1.177035      0.239996
  C      -1.819454     -0.585757     -0.232820
  O      -3.038289     -1.183545     -0.165171
  C      -1.775408      0.681907     -0.807964
  O      -2.924759      1.239571     -1.256337
  C      -0.555437      1.349145     -0.910062
  O      -0.609760      2.579441     -1.486607
  C       0.604879      0.765233     -0.441549
  H       3.542757     -3.086992      0.873987
  H       2.485528     -3.890031      2.068569
  H       3.260030     -2.330592      2.466001
  H      -0.715386     -2.161749      0.686817
  H      -2.955474     -2.052024      0.248354
  H      -2.739933      2.125899     -1.596984
  H       0.274072      2.964982     -1.519024
  H       1.548762      1.290974     -0.522533
  O      -7.718510     -1.152949     -0.841754
  H      -8.225560     -0.892433     -1.622940
  H      -7.496288     -2.080263     -0.998658
  O      -6.954784      2.126607     -1.420681
  H      -6.421491      2.907818     -1.220036
  H      -7.674559      2.155063     -0.774938
  O      -6.693566      0.689995      1.345967
  H      -7.243740     -0.063673      1.593393
  H      -6.006812      0.735195      2.022796
  O      -6.202559     -0.083379     -3.386839
  H      -6.335445      0.805067     -3.740226
  H      -5.435770     -0.431983     -3.858288
34
Coordinates from ORCA-job pb_P0_cplx E -1183.603277699841
  Pb     -5.584206      0.126787     -0.917682
  C       2.818455     -2.930146      1.678586
  O       1.644385     -2.297597      1.166096
  C       1.809841     -1.088861      0.635121
  O       2.892510     -0.538975      0.576948
  C       0.552500     -0.499699      0.137997
  C      -0.658582     -1.180953      0.230785
  C      -1.814930     -0.590927     -0.246325
  O      -3.031337     -1.194720     -0.191190
  C      -1.773168      0.680418     -0.813249
  O      -2.921785      1.236112     -1.265315
  C      -0.555223      1.352289     -0.903681
  O      -0.607751      2.585239     -1.472727
  C       0.604258      0.768954     -0.431244
  H       3.548483     -3.079584      0.882427
  H       2.487980     -3.888461      2.071190
  H       3.258557     -2.327677      2.473828
  H      -0.714783     -2.168826      0.670389
  H      -2.949414     -2.063165      0.222368
  H      -2.737452      2.126221     -1.596358
  H       0.274206      2.975593     -1.494681
  H       1.545916      1.300034     -0.504259
  O      -7.736122     -1.126871     -0.841308
  H      -8.237000     -0.866172     -1.626722
  H      -7.518904     -2.056488     -0.991716
  O      -6.955199      2.117744     -1.414182
  H      -6.408135      2.893124     -1.228341
  H      -7.656808      2.153115     -0.748882
  O      -6.666958      0.693386      1.343614
  H      -7.232734     -0.047783      1.593117
  H      -5.979477      0.725959      2.020495
  O      -6.228587     -0.105439     -3.393749
  H      -6.366363      0.780660     -3.751116
  H      -5.464514     -0.453243     -3.870206
34
Coordinates from ORCA-job pb_P0_cplx E -1183.603318404037
  Pb     -5.586364      0.116194     -0.932141
  C       2.824791     -2.923974      1.685613
  O       1.648772     -2.295272      1.172286
  C       1.811545     -1.085629      0.642736
  O       2.892625     -0.532348      0.585962
  C       0.554337     -0.500404      0.141365
  C      -0.654344     -1.188403      0.220303
  C      -1.810192     -0.600334     -0.260515
  O      -3.024011     -1.210439     -0.220839
  C      -1.772020      0.675252     -0.816523
  O      -2.920527      1.228311     -1.271399
  C      -0.557207      1.353994     -0.894639
  O      -0.610756      2.590231     -1.454788
  C       0.602085      0.772152     -0.418996
  H       3.557011     -3.069560      0.890730
  H       2.497116     -3.883571      2.077243
  H       3.262831     -2.320211      2.481046
  H      -0.711877     -2.180085      0.651092
  H      -2.943423     -2.078928      0.192841
  H      -2.737059      2.122642     -1.591810
  H       0.268611      2.986833     -1.464817
  H       1.539997      1.310949     -0.483567
  O      -7.759978     -1.092677     -0.842399
  H      -8.250582     -0.829946     -1.633830
  H      -7.551170     -2.025615     -0.984021
  O      -6.953868      2.109353     -1.407657
  H      -6.390571      2.877274     -1.240577
  H      -7.632298      2.151808     -0.719245
  O      -6.634927      0.698503      1.337959
  H      -7.219266     -0.027601      1.588850
  H      -5.947833      0.714628      2.015987
  O      -6.256781     -0.129863     -3.400283
  H      -6.399384      0.754164     -3.761100
  H      -5.497625     -0.477382     -3.884842
34
Coordinates from ORCA-job pb_P0_cplx E -1183.603363935368
  Pb     -5.589093      0.111162     -0.940253
  C       2.830808     -2.917550      1.691372
  O       1.651735     -2.292256      1.180274
  C       1.812582     -1.084775      0.644839
  O       2.893096     -0.531140      0.581388
  C       0.554403     -0.502498      0.142288
  C      -0.652245     -1.194422      0.216509
  C      -1.809038     -0.607955     -0.264710
  O      -3.022059     -1.220371     -0.232303
  C      -1.773208      0.669476     -0.815913
  O      -2.922448      1.221900     -1.270564
  C      -0.560198      1.352266     -0.890683
  O      -0.617071      2.589799     -1.447556
  C       0.599777      0.771817     -0.414868
  H       3.560549     -3.065350      0.894658
  H       2.505891     -3.876090      2.087890
  H       3.271583     -2.310620      2.482845
  H      -0.709069     -2.187679      0.643638
  H      -2.943202     -2.088191      0.183307
  H      -2.739079      2.117390     -1.588176
  H       0.260896      2.989731     -1.453174
  H       1.534835      1.315600     -0.477521
  O      -7.773591     -1.074543     -0.848084
  H      -8.259036     -0.808740     -1.640718
  H      -7.571786     -2.010135     -0.983328
  O      -6.952359      2.109312     -1.401433
  H      -6.382431      2.874413     -1.246370
  H      -7.619986      2.153695     -0.703409
  O      -6.616021      0.698234      1.334448
  H      -7.208698     -0.022187      1.582593
  H      -5.930899      0.705069      2.014702
  O      -6.266048     -0.137647     -3.403712
  H      -6.409894      0.747057     -3.762784
  H      -5.511039     -0.484725     -3.895167
34
Coordinates from ORCA-job pb_P0_cplx E -1183.603404563785
  Pb     -5.592169      0.105158     -0.948009
  C       2.837496     -2.909866      1.697208
  O       1.655350     -2.288335      1.188242
  C       1.814181     -1.083899      0.644606
  O       2.894039     -0.530089      0.573755
  C       0.554216     -0.504680      0.141927
  C      -0.649408     -1.201076      0.213652
  C      -1.808187     -0.617177     -0.266901
  O      -3.020326     -1.231506     -0.239589
  C      -1.774753      0.661607     -0.813714
  O      -2.925400      1.212919     -1.266746
  C      -0.563812      1.349220     -0.886961
  O      -0.627632      2.588257     -1.441314
  C       0.597689      0.771553     -0.412341
  H       3.563674     -3.061909      0.898118
  H       2.515601     -3.866919      2.099996
  H       3.280831     -2.299363      2.484414
  H      -0.701841     -2.195535      0.638339
  H      -2.941624     -2.097904      0.179234
  H      -2.742950      2.109061     -1.583447
  H       0.248708      2.992085     -1.443193
  H       1.530267      1.319452     -0.473548
  O      -7.789755     -1.055165     -0.854193
  H      -8.269572     -0.785795     -1.648960
  H      -7.598174     -1.993693     -0.982972
  O      -6.950473      2.110816     -1.396245
  H      -6.375624      2.874328     -1.253099
  H      -7.608050      2.157111     -0.689182
  O      -6.597479      0.696979      1.329665
  H      -7.196184     -0.020441      1.572312
  H      -5.913477      0.692926      2.011019
  O      -6.272056     -0.142770     -3.407016
  H      -6.414735      0.744361     -3.760764
  H      -5.520711     -0.489664     -3.904267
34
Coordinates from ORCA-job pb_P0_cplx E -1183.603456589591
  Pb     -5.595964      0.100345     -0.956319
  C       2.844086     -2.900834      1.705405
  O       1.659813     -2.283157      1.196893
  C       1.817001     -1.083066      0.642440
  O       2.896476     -0.529742      0.564358
  C       0.554866     -0.506952      0.140187
  C      -0.645600     -1.207508      0.212278
  C      -1.806788     -0.626905     -0.267362
  O      -3.017993     -1.242727     -0.241512
  C      -1.775354      0.652641     -0.812494
  O      -2.928000      1.202269     -1.263229
  C      -0.566271      1.344432     -0.886203
  O      -0.637886      2.584414     -1.440012
  C       0.597088      0.770373     -0.413103
  H       3.566346     -3.059642      0.904157
  H       2.524483     -3.855366      2.116240
  H       3.289471     -2.285552      2.487640
  H      -0.690851     -2.202271      0.636844
  H      -2.938255     -2.106821      0.182059
  H      -2.748231      2.098633     -1.580928
  H       0.236615      2.992504     -1.438110
  H       1.528478      1.320077     -0.473530
  O      -7.806982     -1.034654     -0.861882
  H      -8.284478     -0.762445     -1.656685
  H      -7.628675     -1.976500     -0.983993
  O      -6.950693      2.113841     -1.388543
  H      -6.373959      2.877927     -1.257926
  H      -7.600766      2.162332     -0.675015
  O      -6.580097      0.689090      1.325410
  H      -7.183360     -0.026988      1.561573
  H      -5.895611      0.672526      2.006118
  O      -6.276971     -0.141644     -3.412699
  H      -6.417224      0.748838     -3.759177
  H      -5.527055     -0.487423     -3.912853
34
Coordinates from ORCA-job pb_P0_cplx E -1183.603492355485
  Pb     -5.599394      0.094825     -0.964966
  C       2.850505     -2.894383      1.710004
  O       1.665230     -2.278854      1.201822
  C       1.820682     -1.081366      0.640958
  O       2.899762     -0.527874      0.559685
  C       0.556579     -0.507634      0.140109
  C      -0.641359     -1.211920      0.212479
  C      -1.804392     -0.634550     -0.266794
  O      -3.013946     -1.252825     -0.241006
  C      -1.775223      0.645493     -0.810774
  O      -2.929839      1.191333     -1.260173
  C      -0.568181      1.341038     -0.883915
  O      -0.645546      2.581827     -1.436975
  C       0.596962      0.770544     -0.411869
  H       3.570224     -3.056842      0.907225
  H       2.532321     -3.847620      2.125127
  H       3.296471     -2.276403      2.489744
  H      -0.679533     -2.207018      0.636853
  H      -2.931342     -2.114609      0.186662
  H      -2.754599      2.088294     -1.578546
  H       0.226743      2.994634     -1.429906
  H       1.528201      1.320564     -0.470647
  O      -7.825815     -1.012004     -0.865991
  H      -8.299906     -0.738761     -1.663177
  H      -7.662117     -1.957006     -0.980974
  O      -6.951807      2.113198     -1.385408
  H      -6.373549      2.878235     -1.267606
  H      -7.593083      2.165221     -0.664047
  O      -6.565494      0.682562      1.321423
  H      -7.173983     -0.030675      1.552723
  H      -5.878638      0.653061      1.999277
  O      -6.283556     -0.142895     -3.420174
  H      -6.421700      0.750072     -3.760991
  H      -5.533020     -0.487613     -3.920128
34
Coordinates from ORCA-job pb_P0_cplx E -1183.603553887787
  Pb     -5.601310      0.096901     -0.964993
  C       2.852688     -2.892788      1.708366
  O       1.667605     -2.274683      1.203913
  C       1.823314     -1.081257      0.634540
  O       2.903843     -0.531815      0.545635
  C       0.557128     -0.506647      0.139791
  C      -0.641321     -1.208446      0.225541
  C      -1.806439     -0.633315     -0.250692
  O      -3.015799     -1.251586     -0.210124
  C      -1.777304      0.644215     -0.806300
  O      -2.934111      1.188475     -1.253780
  C      -0.569345      1.336462     -0.889938
  O      -0.647671      2.573920     -1.451616
  C       0.597630      0.767712     -0.420750
  H       3.566270     -3.062466      0.901603
  H       2.533020     -3.842873      2.129661
  H       3.304435     -2.273005      2.483330
  H      -0.673124     -2.200258      0.658070
  H      -2.929159     -2.109867      0.223625
  H      -2.764489      2.082431     -1.582358
  H       0.224579      2.986706     -1.448460
  H       1.532230      1.311203     -0.486726
  O      -7.830980     -1.010415     -0.874715
  H      -8.310641     -0.738213     -1.667055
  H      -7.680320     -1.958721     -0.984715
  O      -6.954694      2.116507     -1.383899
  H      -6.388409      2.890765     -1.270807
  H      -7.605838      2.168610     -0.671709
  O      -6.570832      0.665257      1.325313
  H      -7.172691     -0.056274      1.548613
  H      -5.880366      0.632518      1.999224
  O      -6.264929     -0.124918     -3.428403
  H      -6.397577      0.772384     -3.759856
  H      -5.507736     -0.466468     -3.920302
34
Coordinates from ORCA-job pb_P0_cplx E -1183.603589401140
  Pb     -5.603502      0.089690     -0.975918
  C       2.858530     -2.891299      1.707184
  O       1.673582     -2.273251      1.202759
  C       1.827157     -1.077696      0.637997
  O       2.906809     -0.525654      0.553617
  C       0.560353     -0.504758      0.143945
  C      -0.637553     -1.208947      0.227554
  C      -1.802696     -0.635746     -0.249693
  O      -3.009491     -1.257757     -0.209448
  C      -1.776728      0.641302     -0.803785
  O      -2.934766      1.178512     -1.252143
  C      -0.570915      1.336105     -0.885143
  O      -0.648815      2.573425     -1.446027
  C       0.597226      0.769686     -0.415348
  H       3.573958     -3.055968      0.900960
  H       2.539399     -3.843392      2.124170
  H       3.307775     -2.273063      2.484903
  H      -0.667598     -2.201411      0.658984
  H      -2.917849     -2.114725      0.225506
  H      -2.771321      2.074373     -1.578288
  H       0.221131      2.990587     -1.436203
  H       1.532140      1.313235     -0.479039
  O      -7.850360     -0.981903     -0.873231
  H      -8.324186     -0.711757     -1.672376
  H      -7.716210     -1.932786     -0.974027
  O      -6.957143      2.106652     -1.386801
  H      -6.388845      2.881985     -1.289425
  H      -7.594176      2.164998     -0.661843
  O      -6.556014      0.660112      1.323164
  H      -7.168056     -0.052137      1.547323
  H      -5.860596      0.613373      1.991235
  O      -6.276360     -0.133023     -3.439962
  H      -6.411225      0.763481     -3.772069
  H      -5.515997     -0.472196     -3.928506
34
Coordinates from ORCA-job pb_P0_cplx E -1183.603641661458
  Pb     -5.602305      0.090268     -0.976048
  C       2.858349     -2.894636      1.701684
  O       1.673312     -2.274961      1.199047
  C       1.826428     -1.076904      0.640208
  O       2.905983     -0.524188      0.557370
  C       0.560181     -0.503235      0.146987
  C      -0.640094     -1.204036      0.235176
  C      -1.804673     -0.629878     -0.241441
  O      -3.011811     -1.251803     -0.195020
  C      -1.779005      0.645040     -0.800978
  O      -2.936801      1.181707     -1.249997
  C      -0.572029      1.336278     -0.887386
  O      -0.644466      2.570830     -1.452702
  C       0.595938      0.768472     -0.417426
  H       3.575195     -3.054391      0.895680
  H       2.538882     -3.848398      2.114317
  H       3.307831     -2.278914      2.481320
  H      -0.675270     -2.194980      0.669957
  H      -2.918414     -2.108928      0.239150
  H      -2.774179      2.076863     -1.578206
  H       0.226620      2.985439     -1.446953
  H       1.531442      1.310693     -0.485953
  O      -7.848598     -0.981592     -0.874145
  H      -8.323272     -0.713648     -1.673250
  H      -7.719262     -1.933837     -0.971940
  O      -6.957719      2.101208     -1.389795
  H      -6.395055      2.880986     -1.295117
  H      -7.596824      2.160649     -0.666753
  O      -6.558040      0.653692      1.328325
  H      -7.169456     -0.058586      1.553414
  H      -5.860097      0.607146      1.993705
  O      -6.267700     -0.128806     -3.445216
  H      -6.404018      0.767122     -3.778087
  H      -5.503415     -0.464627     -3.929901
34
Coordinates from ORCA-job pb_P0_cplx E -1183.603690283130
  Pb     -5.600457      0.089586     -0.979721
  C       2.858112     -2.896475      1.697229
  O       1.671896     -2.276976      1.196159
  C       1.823762     -1.075945      0.643931
  O       2.902558     -0.521422      0.561833
  C       0.558031     -0.502315      0.150599
  C      -0.644735     -1.198776      0.245415
  C      -1.809076     -0.623528     -0.230197
  O      -3.017566     -1.244001     -0.176486
  C      -1.783707      0.648137     -0.796780
  O      -2.941235      1.185356     -1.245964
  C      -0.575098      1.335244     -0.891305
  O      -0.642441      2.565990     -1.462924
  C       0.592599      0.765893     -0.421108
  H       3.577207     -3.050177      0.892021
  H       2.539653     -3.852385      2.105379
  H       3.307217     -2.282874      2.478793
  H      -0.687343     -2.187381      0.685029
  H      -2.922989     -2.101484      0.256868
  H      -2.777937      2.079265     -1.577335
  H       0.230565      2.976511     -1.464450
  H       1.527597      1.308151     -0.497276
  O      -7.846383     -0.976112     -0.878401
  H      -8.322093     -0.710265     -1.676875
  H      -7.728465     -1.930864     -0.968864
  O      -6.957851      2.092828     -1.389430
  H      -6.404060      2.880120     -1.304445
  H      -7.596193      2.154138     -0.665914
  O      -6.548390      0.640511      1.335888
  H      -7.160627     -0.071015      1.561069
  H      -5.847216      0.591103      1.997509
  O      -6.254914     -0.122459     -3.454976
  H      -6.395827      0.773166     -3.786776
  H      -5.486936     -0.451498     -3.938467
34
Coordinates from ORCA-job pb_P0_cplx E -1183.603713612461
  Pb     -5.598414      0.087771     -0.983493
  C       2.856633     -2.897712      1.694037
  O       1.669651     -2.278332      1.194137
  C       1.820921     -1.075489      0.645638
  O       2.899187     -0.519903      0.563934
  C       0.555109     -0.501357      0.152971
  C      -0.648639     -1.194885      0.253336
  C      -1.813289     -0.619032     -0.221329
  O      -3.023300     -1.236970     -0.162468
  C      -1.787329      0.650080     -0.792750
  O      -2.944636      1.188280     -1.241882
  C      -0.577504      1.334904     -0.893216
  O      -0.644026      2.563421     -1.469344
  C       0.590059      0.764932     -0.423295
  H       3.576458     -3.048671      0.888974
  H       2.539042     -3.854872      2.099899
  H       3.305428     -2.285557      2.476894
  H      -0.694752     -2.181758      0.696449
  H      -2.928396     -2.094793      0.270376
  H      -2.779691      2.080784     -1.576447
  H       0.230590      2.970600     -1.477465
  H       1.524545      1.307224     -0.504993
  O      -7.844097     -0.971147     -0.881690
  H      -8.320081     -0.706827     -1.680288
  H      -7.736054     -1.927755     -0.964998
  O      -6.958396      2.085704     -1.389122
  H      -6.411808      2.879003     -1.314085
  H      -7.594352      2.148593     -0.663616
  O      -6.535894      0.630584      1.340895
  H      -7.148028     -0.081210      1.565361
  H      -5.832035      0.577742      1.999220
  O      -6.244556     -0.118736     -3.462737
  H      -6.390330      0.777038     -3.792058
  H      -5.474353     -0.441606     -3.946818
34
Coordinates from ORCA-job pb_P0_cplx E -1183.603677070585
  Pb     -5.595012      0.084724     -0.988054
  C       2.852669     -2.900089      1.690211
  O       1.665467     -2.280030      1.191522
  C       1.816884     -1.075491      0.646370
  O       2.894909     -0.519502      0.565555
  C       0.550768     -0.499651      0.155449
  C      -0.653709     -1.189608      0.262601
  C      -1.818842     -0.612649     -0.210732
  O      -3.031170     -1.225806     -0.145871
  C      -1.790807      0.653515     -0.787446
  O      -2.947507      1.193830     -1.236581
  C      -0.579293      1.335657     -0.894357
  O      -0.646736      2.562239     -1.475389
  C       0.587972      0.764898     -0.425297
  H       3.572356     -3.049913      0.884844
  H       2.535506     -3.858161      2.094348
  H       3.301267     -2.289669      2.474487
  H      -0.702116     -2.174508      0.709658
  H      -2.936826     -2.084676      0.285329
  H      -2.779015      2.084181     -1.575460
  H       0.230100      2.964634     -1.493090
  H       1.522245      1.306436     -0.513031
  O      -7.839485     -0.966907     -0.884456
  H      -8.315480     -0.704865     -1.683746
  H      -7.741950     -1.925319     -0.958268
  O      -6.960964      2.075769     -1.389870
  H      -6.423028      2.876014     -1.328140
  H      -7.592800      2.140411     -0.660917
  O      -6.518760      0.619534      1.346162
  H      -7.129307     -0.093750      1.570273
  H      -5.810939      0.562107      1.999757
  O      -6.232745     -0.115103     -3.471589
  H      -6.386346      0.780704     -3.797269
  H      -5.459644     -0.428914     -3.956973
34
Coordinates from ORCA-job pb_P0_cplx E -1183.603827028409
  Pb     -5.591715      0.081680     -0.991265
  C       2.847761     -2.903528      1.686667
  O       1.661168     -2.281436      1.189372
  C       1.813689     -1.076124      0.645782
  O       2.892212     -0.521227      0.565521
  C       0.547338     -0.497619      0.157442
  C      -0.657860     -1.184345      0.269940
  C      -1.823178     -0.605768     -0.202012
  O      -3.037543     -1.213929     -0.132422
  C      -1.792203      0.658373     -0.782519
  O      -2.947942      1.201309     -1.231833
  C      -0.579051      1.337775     -0.893698
  O      -0.647563      2.563384     -1.478050
  C       0.587820      0.765906     -0.425927
  H       3.566078     -3.054380      0.880287
  H       2.529927     -3.861650      2.090301
  H       3.297148     -2.294682      2.471677
  H      -0.706634     -2.167856      0.719819
  H      -2.944705     -2.074390      0.296098
  H      -2.775101      2.089432     -1.574645
  H       0.231278      2.961061     -1.505222
  H       1.522739      1.305474     -0.517702
  O      -7.834828     -0.966430     -0.885297
  H      -8.310358     -0.707016     -1.685804
  H      -7.743028     -1.925855     -0.950959
  O      -6.966000      2.066457     -1.392465
  H      -6.434361      2.871570     -1.342083
  H      -7.593623      2.132357     -0.660041
  O      -6.505622      0.612415      1.349250
  H      -7.113410     -0.103113      1.573912
  H      -5.793794      0.551338      1.998241
  O      -6.225097     -0.113306     -3.477791
  H      -6.386928      0.782170     -3.800357
  H      -5.448957     -0.418004     -3.964189
34
Coordinates from ORCA-job pb_P0_cplx E -1183.603795946253
  Pb     -5.588831      0.078098     -0.994331
  C       2.842194     -2.908319      1.683150
  O       1.656832     -2.282798      1.187798
  C       1.811349     -1.077351      0.644755
  O       2.891113     -0.524996      0.564466
  C       0.545137     -0.495209      0.159602
  C      -0.661278     -1.178560      0.276089
  C      -1.826210     -0.597502     -0.194325
  O      -3.042379     -1.200547     -0.121229
  C      -1.791638      0.665453     -0.777183
  O      -2.946014      1.211586     -1.226725
  C      -0.576752      1.341554     -0.890951
  O      -0.645280      2.566950     -1.477004
  C       0.589560      0.767776     -0.424915
  H       3.558178     -3.061560      0.875155
  H       2.522620     -3.865810      2.087018
  H       3.293657     -2.301128      2.468222
  H      -0.709541     -2.161194      0.727783
  H      -2.952216     -2.063337      0.303169
  H      -2.767871      2.097295     -1.573293
  H       0.235524      2.959455     -1.514287
  H       1.526036      1.304074     -0.519063
  O      -7.831233     -0.968294     -0.884933
  H      -8.305395     -0.712469     -1.687574
  H      -7.741736     -1.928295     -0.942447
  O      -6.974465      2.056266     -1.396687
  H      -6.447014      2.864668     -1.357993
  H      -7.596140      2.123682     -0.659433
  O      -6.493902      0.608242      1.350174
  H      -7.099108     -0.108926      1.576838
  H      -5.777699      0.543672      1.994224
  O      -6.222322     -0.114189     -3.482663
  H      -6.394597      0.780136     -3.802927
  H      -5.442919     -0.408376     -3.970452
34
Coordinates from ORCA-job pb_P0_cplx E -1183.603811852992
  Pb     -5.587463      0.074559     -0.996975
  C       2.837670     -2.913129      1.680998
  O       1.653658     -2.283996      1.187442
  C       1.810497     -1.078970      0.644081
  O       2.891806     -0.529723      0.563147
  C       0.544993     -0.493350      0.161294
  C      -0.662975     -1.174133      0.278645
  C      -1.826901     -0.590115     -0.190329
  O      -3.044259     -1.189399     -0.116159
  C      -1.789233      0.673090     -0.772945
  O      -2.942209      1.222563     -1.222272
  C      -0.572956      1.346215     -0.886614
  O      -0.639855      2.572433     -1.471592
  C       0.592647      0.769975     -0.422104
  H       3.551452     -3.068896      0.871528
  H       2.515902     -3.869647      2.085487
  H       3.291787     -2.307230      2.465536
  H      -0.710581     -2.156838      0.730242
  H      -2.957498     -2.054781      0.303433
  H      -2.759061      2.106274     -1.571407
  H       0.242457      2.960545     -1.516786
  H       1.531103      1.302842     -0.515818
  O      -7.830365     -0.971857     -0.883745
  H      -8.302271     -0.719979     -1.689017
  H      -7.739226     -1.931987     -0.935028
  O      -6.984363      2.047654     -1.401097
  H      -6.457320      2.856665     -1.372165
  H      -7.598742      2.117082     -0.658065
  O      -6.484967      0.608571      1.348270
  H      -7.089520     -0.108127      1.578308
  H      -5.765136      0.541487      1.988236
  O      -6.226549     -0.118525     -3.484959
  H      -6.409885      0.773859     -3.804416
  H      -5.444976     -0.403083     -3.975128
34
Coordinates from ORCA-job pb_P0_cplx E -1183.603833039176
  Pb     -5.587342      0.070646     -0.999873
  C       2.834429     -2.918962      1.677420
  O       1.651317     -2.285468      1.187406
  C       1.810591     -1.080941      0.643859
  O       2.893700     -0.535454      0.560605
  C       0.546112     -0.491410      0.163926
  C      -0.664067     -1.169148      0.281893
  C      -1.826565     -0.581658     -0.185262
  O      -3.044949     -1.177880     -0.110363
  C      -1.786425      0.682170     -0.766994
  O      -2.938174      1.234875     -1.215383
  C      -0.568750      1.351877     -0.880551
  O      -0.632179      2.578893     -1.463776
  C       0.596107      0.772328     -0.418008
  H       3.545427     -3.076636      0.865854
  H       2.510320     -3.874499      2.082322
  H       3.292891     -2.314866      2.460837
  H      -0.711910     -2.152218      0.732751
  H      -2.961618     -2.045794      0.304408
  H      -2.750719      2.116407     -1.567689
  H       0.251676      2.962222     -1.516602
  H       1.536930      1.301179     -0.511119
  O      -7.831843     -0.976185     -0.883447
  H      -8.300456     -0.729540     -1.692254
  H      -7.738375     -1.936426     -0.928274
  O      -6.995397      2.038716     -1.406808
  H      -6.467520      2.847501     -1.388303
  H      -7.601191      2.111664     -0.657202
  O      -6.476818      0.611126      1.344421
  H      -7.082705     -0.103121      1.578572
  H      -5.753528      0.541928      1.980341
  O      -6.232930     -0.125602     -3.486817
  H      -6.428989      0.764141     -3.806090
  H      -5.449389     -0.399820     -3.979773
34
Coordinates from ORCA-job pb_P0_cplx E -1183.603850820334
  Pb     -5.588319      0.067060     -1.002937
  C       2.833382     -2.923834      1.673444
  O       1.650297     -2.286813      1.187696
  C       1.811329     -1.082840      0.643736
  O       2.895847     -0.540568      0.556798
  C       0.547657     -0.490098      0.166640
  C      -0.664558     -1.164930      0.286042
  C      -1.825967     -0.574369     -0.178844
  O      -3.045386     -1.168227     -0.102628
  C      -1.784604      0.689884     -0.760005
  O      -2.935883      1.245048     -1.206229
  C      -0.565738      1.356510     -0.874949
  O      -0.625568      2.583904     -1.456858
  C       0.598612      0.773739     -0.414688
  H       3.541686     -3.082468      0.859697
  H       2.507744     -3.878649      2.078729
  H       3.296527     -2.321357      2.455372
  H      -0.713716     -2.148257      0.736340
  H      -2.964417     -2.037908      0.308707
  H      -2.746118      2.124536     -1.562283
  H       0.259694      2.962879     -1.515761
  H       1.541275      1.299337     -0.508395
  O      -7.834881     -0.979136     -0.885290
  H      -8.300106     -0.737844     -1.697539
  H      -7.740681     -1.939628     -0.923955
  O      -7.004369      2.031360     -1.411879
  H      -6.475587      2.839728     -1.403446
  H      -7.602149      2.108970     -0.656434
  O      -6.469386      0.613361      1.340040
  H      -7.078493     -0.096915      1.577863
  H      -5.743363      0.541916      1.972531
  O      -6.238087     -0.132255     -3.488970
  H      -6.446065      0.754861     -3.808024
  H      -5.452948     -0.396950     -3.984496
34
Coordinates from ORCA-job pb_P0_cplx E -1183.603862737227
  Pb     -5.589947      0.063669     -1.005197
  C       2.834284     -2.927894      1.668254
  O       1.650383     -2.288066      1.187752
  C       1.812465     -1.085002      0.642364
  O       2.898059     -0.545678      0.549869
  C       0.549009     -0.489483      0.168977
  C      -0.664904     -1.161317      0.291882
  C      -1.825910     -0.568027     -0.169648
  O      -3.046567     -1.159671     -0.090291
  C      -1.784322      0.696385     -0.751038
  O      -2.935983      1.253763     -1.193284
  C      -0.564326      1.360034     -0.869759
  O      -0.621190      2.587394     -1.451143
  C       0.599886      0.774074     -0.412794
  H       3.539332     -3.087364      0.851841
  H       2.507963     -3.881996      2.074574
  H       3.302756     -2.326614      2.447948
  H      -0.715961     -2.144610      0.742158
  H      -2.966870     -2.030452      0.318868
  H      -2.745786      2.131094     -1.554223
  H       0.265482      2.962070     -1.515563
  H       1.543859      1.296988     -0.509098
  O      -7.838099     -0.982296     -0.889544
  H      -8.299634     -0.746561     -1.705188
  H      -7.743819     -1.943155     -0.922397
  O      -7.010345      2.025772     -1.417479
  H      -6.480291      2.833249     -1.418038
  H      -7.601742      2.109299     -0.657872
  O      -6.464474      0.615791      1.335308
  H      -7.077608     -0.089949      1.576133
  H      -5.736322      0.542110      1.964917
  O      -6.240020     -0.137568     -3.490960
  H      -6.458691      0.747293     -3.809173
  H      -5.453010     -0.393235     -3.988128
34
Coordinates from ORCA-job pb_P0_cplx E -1183.603886575220
  Pb     -5.592056      0.060950     -1.006101
  C       2.837798     -2.929253      1.663343
  O       1.652284     -2.288560      1.187544
  C       1.814016     -1.086803      0.639318
  O       2.899933     -0.549223      0.540410
  C       0.549775     -0.490132      0.169840
  C      -0.664678     -1.160248      0.297380
  C      -1.826420     -0.565525     -0.160156
  O      -3.047944     -1.156027     -0.076651
  C      -1.786163      0.698918     -0.741900
  O      -2.939293      1.257296     -1.178687
  C      -0.565718      1.361009     -0.865888
  O      -0.621833      2.588164     -1.447251
  C       0.599110      0.773003     -0.412946
  H       3.539721     -3.089510      0.844399
  H       2.512134     -3.882711      2.071621
  H       3.310721     -2.327912      2.440314
  H      -0.717214     -2.143402      0.747858
  H      -2.967738     -2.026712      0.332618
  H      -2.751403      2.133210     -1.544034
  H       0.265636      2.960550     -1.514342
  H       1.543274      1.294941     -0.513208
  O      -7.841245     -0.983981     -0.895656
  H      -8.299319     -0.752428     -1.714187
  H      -7.747100     -1.945108     -0.924807
  O      -7.009982      2.024403     -1.422337
  H      -6.476773      2.829678     -1.428024
  H      -7.598087      2.114333     -0.661113
  O      -6.463960      0.618787      1.330865
  H      -7.081792     -0.082272      1.573282
  H      -5.735145      0.542743      1.959223
  O      -6.239015     -0.140627     -3.492222
  H      -6.463591      0.743236     -3.809106
  H      -5.450274     -0.390741     -3.989375
34
Coordinates from ORCA-job pb_P0_cplx E -1183.603919897497
  Pb     -5.594833      0.056677     -1.006423
  C       2.844537     -2.929643      1.654505
  O       1.656060     -2.288653      1.186170
  C       1.816012     -1.089394      0.631983
  O       2.901944     -0.554067      0.521876
  C       0.549357     -0.491792      0.170080
  C      -0.664912     -1.159876      0.307165
  C      -1.828978     -0.563831     -0.143032
  O      -3.051489     -1.152689     -0.051247
  C      -1.791631      0.700210     -0.725946
  O      -2.947865      1.259323     -1.152817
  C      -0.570992      1.360670     -0.860244
  O      -0.628596      2.587359     -1.442335
  C       0.595655      0.770431     -0.414993
  H       3.540612     -3.092242      0.831057
  H       2.520830     -3.881761      2.067393
  H       3.324324     -2.327058      2.426310
  H      -0.718625     -2.142520      0.758604
  H      -2.969071     -2.022390      0.359864
  H      -2.765115      2.133393     -1.524903
  H       0.259574      2.957673     -1.512849
  H       1.539229      1.291872     -0.523443
  O      -7.844230     -0.986395     -0.907263
  H      -8.296943     -0.760718     -1.730262
  H      -7.749890     -1.947742     -0.931278
  O      -7.002764      2.024956     -1.430337
  H      -6.462465      2.825391     -1.441825
  H      -7.588224      2.126229     -0.668628
  O      -6.466188      0.624022      1.324699
  H      -7.091544     -0.069709      1.568863
  H      -5.737449      0.543516      1.952375
  O      -6.233400     -0.143773     -3.494503
  H      -6.463762      0.739579     -3.808676
  H      -5.441509     -0.387000     -3.989916
34
Coordinates from ORCA-job pb_P0_cplx E -1183.603915018772
  Pb     -5.592148      0.050670     -1.008142
  C       2.845839     -2.922367      1.660839
  O       1.656755     -2.285995      1.187485
  C       1.814860     -1.087375      0.631281
  O       2.899663     -0.549485      0.521906
  C       0.547153     -0.493565      0.166525
  C      -0.665490     -1.164537      0.303140
  C      -1.831406     -0.570754     -0.146342
  O      -3.052892     -1.163032     -0.053432
  C      -1.796068      0.694694     -0.728572
  O      -2.953247      1.255478     -1.152970
  C      -0.576014      1.357140     -0.863783
  O      -0.636744      2.584187     -1.445587
  C       0.591747      0.768814     -0.418964
  H       3.544811     -3.085090      0.839924
  H       2.523782     -3.874590      2.074908
  H       3.321447     -2.316553      2.432933
  H      -0.718260     -2.147203      0.754771
  H      -2.967525     -2.032888      0.357403
  H      -2.771589      2.131421     -1.521963
  H       0.250918      2.957215     -1.514556
  H       1.533548      1.293708     -0.527994
  O      -7.853680     -0.974481     -0.912205
  H      -8.301580     -0.743339     -1.736158
  H      -7.766460     -1.938155     -0.935393
  O      -6.991570      2.024609     -1.424249
  H      -6.445663      2.823435     -1.438537
  H      -7.573699      2.129465     -0.655309
  O      -6.454889      0.618844      1.328183
  H      -7.086456     -0.072724      1.569188
  H      -5.724090      0.529920      1.955983
  O      -6.231882     -0.143399     -3.497650
  H      -6.460569      0.742593     -3.808309
  H      -5.440943     -0.386613     -3.994328
34
Coordinates from ORCA-job pb_P0_cplx E -1183.603965857993
  Pb     -5.589373      0.045956     -1.007045
  C       2.844578     -2.920804      1.658400
  O       1.655688     -2.283339      1.186848
  C       1.813749     -1.088023      0.623725
  O       2.899135     -0.553333      0.507304
  C       0.544401     -0.493444      0.163863
  C      -0.667173     -1.163238      0.307145
  C      -1.835276     -0.569886     -0.137887
  O      -3.055124     -1.163183     -0.039051
  C      -1.801844      0.694729     -0.720638
  O      -2.960542      1.256080     -1.139607
  C      -0.582343      1.355833     -0.862849
  O      -0.647043      2.581735     -1.446729
  C       0.587662      0.767658     -0.423779
  H       3.539012     -3.089739      0.834999
  H       2.521723     -3.870021      2.078388
  H       3.324437     -2.312891      2.426034
  H      -0.717403     -2.145283      0.759962
  H      -2.965440     -2.031322      0.374511
  H      -2.780022      2.131275     -1.510519
  H       0.239536      2.955225     -1.519763
  H       1.528646      1.291918     -0.538926
  O      -7.851219     -0.971711     -0.918018
  H      -8.296271     -0.742718     -1.744784
  H      -7.765081     -1.934871     -0.938393
  O      -6.983073      2.023516     -1.425387
  H      -6.434681      2.819897     -1.441248
  H      -7.562970      2.132540     -0.659533
  O      -6.455088      0.617193      1.327816
  H      -7.084895     -0.074277      1.564595
  H      -5.727352      0.524164      1.954906
  O      -6.222278     -0.142286     -3.498632
  H      -6.448099      0.745155     -3.803094
  H      -5.428319     -0.382457     -3.992585
34
Coordinates from ORCA-job pb_P0_cplx E -1183.603986801547
  Pb     -5.587175      0.041030     -1.005476
  C       2.842955     -2.922363      1.652947
  O       1.654374     -2.283044      1.183664
  C       1.812636     -1.088848      0.618006
  O       2.898644     -0.556440      0.497813
  C       0.542352     -0.492450      0.162613
  C      -0.669480     -1.160309      0.311646
  C      -1.838628     -0.565954     -0.129384
  O      -3.058215     -1.157165     -0.024449
  C      -1.805385      0.697381     -0.713344
  O      -2.965248      1.259186     -1.127680
  C      -0.585534      1.356738     -0.860966
  O      -0.651748      2.582634     -1.445237
  C       0.585779      0.768126     -0.425972
  H       3.533744     -3.095558      0.827410
  H       2.519292     -3.869699      2.076572
  H       3.326277     -2.313820      2.417667
  H      -0.717726     -2.141752      0.765969
  H      -2.966807     -2.025250      0.388379
  H      -2.785311      2.133596     -1.500514
  H       0.235002      2.955500     -1.522393
  H       1.527313      1.290684     -0.544950
  O      -7.848589     -0.974601     -0.921731
  H      -8.289234     -0.748474     -1.751766
  H      -7.761242     -1.936121     -0.939583
  O      -6.975754      2.020968     -1.429826
  H      -6.424188      2.813615     -1.446910
  H      -7.553023      2.135547     -0.664749
  O      -6.456591      0.617241      1.327451
  H      -7.091089     -0.070708      1.567723
  H      -5.730218      0.521846      1.954701
  O      -6.215060     -0.144266     -3.499471
  H      -6.445070      0.742970     -3.805579
  H      -5.419394     -0.380192     -3.992553
34
Coordinates from ORCA-job pb_P0_cplx E -1183.604023630658
  Pb     -5.584880      0.032016     -1.005937
  C       2.842911     -2.925183      1.642478
  O       1.653740     -2.283476      1.178407
  C       1.811305     -1.088424      0.613324
  O       2.897653     -0.556957      0.489642
  C       0.539684     -0.490277      0.163829
  C      -0.672244     -1.156836      0.319123
  C      -1.843047     -0.562027     -0.117032
  O      -3.062139     -1.151909     -0.004402
  C      -1.810922      0.700024     -0.703171
  O      -2.972313      1.261838     -1.113298
  C      -0.590881      1.358579     -0.856031
  O      -0.658948      2.584907     -1.439894
  C       0.582203      0.770322     -0.425123
  H       3.529848     -3.099875      0.813645
  H       2.519239     -3.872244      2.067497
  H       3.329945     -2.317536      2.405587
  H      -0.718435     -2.137760      0.774971
  H      -2.968810     -2.018425      0.410832
  H      -2.792767      2.134496     -1.489916
  H       0.227508      2.957825     -1.521088
  H       1.523686      1.292450     -0.548211
  O      -7.851530     -0.974267     -0.927308
  H      -8.286473     -0.752064     -1.761024
  H      -7.765338     -1.935386     -0.940189
  O      -6.964109      2.016898     -1.437175
  H      -6.406156      2.804568     -1.459700
  H      -7.537120      2.142029     -0.669972
  O      -6.455163      0.620767      1.326075
  H      -7.091512     -0.062939      1.567312
  H      -5.728134      0.518465      1.952212
  O      -6.208763     -0.152076     -3.504011
  H      -6.439666      0.734681     -3.806234
  H      -5.410715     -0.382155     -3.995195
34
Coordinates from ORCA-job pb_P0_cplx E -1183.604072379123
  Pb     -5.581911      0.019859     -1.007173
  C       2.845721     -2.931173      1.620139
  O       1.653774     -2.284527      1.170509
  C       1.808915     -1.087865      0.607378
  O       2.895398     -0.558785      0.475144
  C       0.534874     -0.485833      0.170405
  C      -0.677141     -1.149567      0.336975
  C      -1.850237     -0.554235     -0.092303
  O      -3.069199     -1.142601      0.030158
  C      -1.819729      0.705994     -0.683093
  O      -2.982786      1.267226     -1.090495
  C      -0.599717      1.362874     -0.844330
  O      -0.670021      2.587983     -1.430416
  C       0.575568      0.774049     -0.420491
  H       3.522621     -3.107042      0.783084
  H       2.523640     -3.877917      2.047525
  H       3.343026     -2.326558      2.378770
  H      -0.720106     -2.129746      0.794943
  H      -2.974687     -2.007051      0.449301
  H      -2.803555      2.137646     -1.472307
  H       0.216061      2.959572     -1.519123
  H       1.517045      1.293726     -0.551864
  O      -7.856945     -0.972152     -0.936818
  H      -8.282489     -0.755716     -1.777308
  H      -7.774890     -1.934947     -0.938658
  O      -6.947553      2.010823     -1.450325
  H      -6.380957      2.793241     -1.483912
  H      -7.514713      2.151005     -0.680824
  O      -6.452948      0.626073      1.322610
  H      -7.098969     -0.048200      1.566966
  H      -5.728584      0.515992      1.949294
  O      -6.192963     -0.167917     -3.510739
  H      -6.428116      0.716932     -3.813811
  H      -5.390768     -0.391118     -3.999181
34
Coordinates from ORCA-job pb_P0_cplx E -1183.604125019788
  Pb     -5.577201      0.005609     -1.008518
  C       2.847046     -2.932981      1.603201
  O       1.651607     -2.283394      1.166662
  C       1.804770     -1.088801      0.599306
  O       2.891650     -0.564496      0.453364
  C       0.528513     -0.483419      0.174115
  C      -0.684042     -1.142683      0.354513
  C      -1.859347     -0.545203     -0.065348
  O      -3.079140     -1.129722      0.070163
  C      -1.830467      0.712875     -0.661101
  O      -2.995170      1.276137     -1.061971
  C      -0.610317      1.365340     -0.835744
  O      -0.682378      2.587723     -1.426269
  C       0.567195      0.773940     -0.422086
  H       3.512190     -3.114713      0.758388
  H       2.526808     -3.876703      2.038093
  H       3.357029     -2.327704      2.353110
  H      -0.725087     -2.121078      0.816298
  H      -2.984516     -1.993776      0.491292
  H      -2.814895      2.144020     -1.450356
  H       0.203929      2.954254     -1.529042
  H       1.508691      1.289813     -0.565168
  O      -7.860539     -0.973982     -0.951412
  H      -8.277289     -0.762823     -1.796790
  H      -7.781990     -1.937431     -0.943052
  O      -6.927021      2.004501     -1.459056
  H      -6.349899      2.779303     -1.503987
  H      -7.487820      2.161274     -0.687848
  O      -6.447399      0.624339      1.319844
  H      -7.101462     -0.040957      1.565873
  H      -5.721446      0.502719      1.946476
  O      -6.176476     -0.175609     -3.519273
  H      -6.417765      0.710916     -3.817489
  H      -5.370104     -0.387242     -4.006161
34
Coordinates from ORCA-job pb_P0_cplx E -1183.604213033092
  Pb     -5.569756     -0.014802     -1.014404
  C       2.843398     -2.943715      1.575148
  O       1.646131     -2.285107      1.157410
  C       1.799652     -1.091615      0.588064
  O       2.887941     -0.574461      0.426186
  C       0.521729     -0.478258      0.180296
  C      -0.692383     -1.129617      0.378944
  C      -1.869387     -0.526022     -0.025883
  O      -3.090665     -1.102737      0.128429
  C      -1.842368      0.729518     -0.626266
  O      -3.009640      1.296359     -1.014480
  C      -0.621273      1.374715     -0.818733
  O      -0.693565      2.596083     -1.410893
  C       0.558493      0.777497     -0.419492
  H       3.494404     -3.129670      0.720220
  H       2.522447     -3.885265      2.014048
  H       3.369759     -2.342757      2.317590
  H      -0.733275     -2.106503      0.843941
  H      -2.995092     -1.966598      0.550049
  H      -2.828687      2.158729     -1.415896
  H       0.193866      2.954412     -1.532023
  H       1.501316      1.287430     -0.576454
  O      -7.860752     -0.980519     -0.968754
  H      -8.263146     -0.785162     -1.824228
  H      -7.788499     -1.943261     -0.939907
  O      -6.911008      1.990158     -1.476953
  H      -6.323675      2.755768     -1.549370
  H      -7.454168      2.171353     -0.697086
  O      -6.426375      0.626957      1.310645
  H      -7.096735     -0.019168      1.565036
  H      -5.701770      0.492658      1.932873
  O      -6.157827     -0.195775     -3.531253
  H      -6.423762      0.684419     -3.826744
  H      -5.347669     -0.384997     -4.020033
34
Coordinates from ORCA-job pb_P0_cplx E -1183.604337193772
  Pb     -5.558343     -0.040023     -1.023021
  C       2.842111     -2.947996      1.549085
  O       1.641352     -2.281988      1.152859
  C       1.792484     -1.096424      0.567387
  O       2.881336     -0.590746      0.374880
  C       0.510818     -0.475938      0.182497
  C      -0.703639     -1.116488      0.412030
  C      -1.884083     -0.506109      0.029209
  O      -3.106740     -1.071391      0.214421
  C      -1.861412      0.745042     -0.581401
  O      -3.033240      1.317665     -0.948027
  C      -0.640334      1.379205     -0.805181
  O      -0.715553      2.596792     -1.404598
  C       0.543162      0.775060     -0.427256
  H       3.471655     -3.147307      0.681277
  H       2.522305     -3.882667      2.003168
  H       3.391362     -2.345705      2.273774
  H      -0.742336     -2.089574      0.884925
  H      -3.008775     -1.933752      0.638323
  H      -2.854631      2.171780     -1.368899
  H       0.172166      2.944723     -1.552133
  H       1.486814      1.276160     -0.608004
  O      -7.862878     -0.981693     -0.998119
  H      -8.248809     -0.802813     -1.864970
  H      -7.807384     -1.944189     -0.942806
  O      -6.884149      1.975435     -1.491356
  H      -6.287776      2.730032     -1.598332
  H      -7.406921      2.185282     -0.706089
  O      -6.399093      0.614901      1.300817
  H      -7.088846     -0.009926      1.558466
  H      -5.674076      0.456901      1.917285
  O      -6.124168     -0.203373     -3.549224
  H      -6.416948      0.671654     -3.833484
  H      -5.307771     -0.362484     -4.037478
34
Coordinates from ORCA-job pb_P0_cplx E -1183.604498193668
  Pb     -5.542080     -0.062507     -1.033458
  C       2.834549     -2.954383      1.523766
  O       1.632187     -2.280132      1.146814
  C       1.781692     -1.099064      0.552174
  O       2.870620     -0.603083      0.336853
  C       0.497862     -0.470845      0.187331
  C      -0.716800     -1.100493      0.444599
  C      -1.899430     -0.484497      0.078686
  O      -3.123054     -1.038294      0.291723
  C      -1.878726      0.760879     -0.544305
  O      -3.053171      1.338159     -0.896816
  C      -0.657627      1.384572     -0.794477
  O      -0.735441      2.597334     -1.403043
  C       0.528229      0.775165     -0.432537
  H       3.445953     -3.162869      0.645161
  H       2.515434     -3.884391      1.987873
  H       3.402074     -2.353583      2.235314
  H      -0.753234     -2.069443      0.926095
  H      -3.022972     -1.899051      0.718465
  H      -2.874765      2.184324     -1.334804
  H       0.151876      2.935665     -1.574751
  H       1.472247      1.267341     -0.634471
  O      -7.858481     -0.979963     -1.018855
  H      -8.232883     -0.816499     -1.893786
  H      -7.823000     -1.941428     -0.939730
  O      -6.861014      1.955765     -1.504046
  H      -6.263582      2.705406     -1.643158
  H      -7.366009      2.188716     -0.712785
  O      -6.365164      0.597788      1.294142
  H      -7.066226     -0.012058      1.554135
  H      -5.638668      0.418800      1.902526
  O      -6.089573     -0.209128     -3.568085
  H      -6.405295      0.662320     -3.841146
  H      -5.267867     -0.340475     -4.055376
34
Coordinates from ORCA-job pb_P0_cplx E -1183.604707844573
  Pb     -5.522159     -0.090104     -1.042664
  C       2.828840     -2.959038      1.492601
  O       1.623418     -2.276427      1.141074
  C       1.768797     -1.102713      0.531222
  O       2.856393     -0.618849      0.283733
  C       0.481950     -0.466572      0.191545
  C      -0.731057     -1.084693      0.481459
  C      -1.916522     -0.462431      0.136988
  O      -3.139939     -1.003472      0.381243
  C      -1.900834      0.777137     -0.498311
  O      -3.079603      1.358311     -0.832285
  C      -0.681558      1.389736     -0.780053
  O      -0.764008      2.597348     -1.397727
  C       0.507412      0.774024     -0.439115
  H       3.415263     -3.180643      0.600313
  H       2.512901     -3.882085      1.972499
  H       3.420313     -2.357978      2.184259
  H      -0.763968     -2.049332      0.971513
  H      -3.036497     -1.861776      0.812601
  H      -2.904460      2.195914     -1.289185
  H       0.121424      2.926433     -1.593587
  H       1.450164      1.257128     -0.666414
  O      -7.855260     -0.975435     -1.046019
  H      -8.210413     -0.828562     -1.931490
  H      -7.839422     -1.934617     -0.941549
  O      -6.824743      1.935982     -1.519151
  H      -6.219106      2.672636     -1.691873
  H      -7.307638      2.196434     -0.722440
  O      -6.332771      0.583785      1.283687
  H      -7.052797     -0.004269      1.545521
  H      -5.608960      0.378653      1.886905
  O      -6.047590     -0.219113     -3.585596
  H      -6.387552      0.645972     -3.848269
  H      -5.222359     -0.321335     -4.071411
34
Coordinates from ORCA-job pb_P0_cplx E -1183.604930956975
  Pb     -5.500377     -0.118398     -1.053345
  C       2.821979     -2.961721      1.465020
  O       1.614049     -2.272349      1.136056
  C       1.754223     -1.106067      0.510749
  O       2.839553     -0.633511      0.233151
  C       0.464732     -0.462965      0.194621
  C      -0.745931     -1.070403      0.515360
  C      -1.933727     -0.442278      0.190874
  O      -3.156194     -0.970655      0.463829
  C      -1.922830      0.792009     -0.455622
  O      -3.105566      1.377449     -0.770955
  C      -0.705948      1.394087     -0.767112
  O      -0.793173      2.597319     -1.392473
  C       0.485644      0.772568     -0.445867
  H       3.384469     -3.197036      0.560859
  H       2.510281     -3.877366      1.961709
  H       3.434876     -2.358932      2.136076
  H      -0.774529     -2.031113      1.013242
  H      -3.049932     -1.825714      0.900804
  H      -2.933930      2.206467     -1.245871
  H       0.089946      2.918634     -1.610031
  H       1.426670      1.247115     -0.696716
  O      -7.850968     -0.963886     -1.072634
  H      -8.187340     -0.834654     -1.968352
  H      -7.856601     -1.920042     -0.943766
  O      -6.788790      1.912312     -1.530038
  H      -6.176322      2.636148     -1.737510
  H      -7.245945      2.200461     -0.726870
  O      -6.294111      0.568774      1.274688
  H      -7.030179      0.001685      1.535334
  H      -5.574941      0.335848      1.872779
  O      -6.008427     -0.230512     -3.603700
  H      -6.371584      0.629789     -3.853332
  H      -5.181415     -0.303014     -4.090929
34
Coordinates from ORCA-job pb_P0_cplx E -1183.605289196644
  Pb     -5.476338     -0.150309     -1.071555
  C       2.824094     -2.949411      1.449927
  O       1.610355     -2.262350      1.138906
  C       1.738278     -1.108199      0.488861
  O       2.817858     -0.644835      0.176868
  C       0.443546     -0.464936      0.193518
  C      -0.761726     -1.063906      0.547591
  C      -1.953214     -0.432848      0.242255
  O      -3.171260     -0.949824      0.546415
  C      -1.949217      0.792792     -0.418820
  O      -3.134732      1.382492     -0.716119
  C      -0.737700      1.386240     -0.763517
  O      -0.835052      2.582506     -1.400946
  C       0.457402      0.762649     -0.460869
  H       3.362220     -3.202889      0.536249
  H       2.523269     -3.854951      1.971063
  H       3.454708     -2.336144      2.094009
  H      -0.783213     -2.019252      1.055883
  H      -3.063251     -1.798775      0.992932
  H      -2.970633      2.200757     -1.204885
  H       0.044289      2.902976     -1.632987
  H       1.393641      1.231234     -0.737704
  O      -7.856147     -0.929697     -1.098731
  H      -8.173950     -0.808612     -2.003115
  H      -7.896165     -1.883514     -0.948881
  O      -6.738977      1.893995     -1.530236
  H      -6.123001      2.601963     -1.764880
  H      -7.170051      2.200242     -0.718252
  O      -6.249380      0.539510      1.262873
  H      -7.000645     -0.010069      1.512921
  H      -5.540691      0.270325      1.859735
  O      -5.967954     -0.226140     -3.626743
  H      -6.340533      0.636010     -3.854498
  H      -5.138170     -0.276983     -4.117241
34
Coordinates from ORCA-job pb_P0_cplx E -1183.605736856866
  Pb     -5.450096     -0.184978     -1.092774
  C       2.830817     -2.931025      1.437819
  O       1.609890     -2.249240      1.144772
  C       1.722754     -1.109015      0.467912
  O       2.794433     -0.653834      0.119375
  C       0.421759     -0.469265      0.191546
  C      -0.776316     -1.060606      0.581017
  C      -1.972575     -0.428715      0.295062
  O      -3.185003     -0.934575      0.634200
  C      -1.978403      0.786733     -0.382481
  O      -3.167218      1.379794     -0.659244
  C      -0.774237      1.372368     -0.764129
  O      -0.884224      2.558599     -1.417717
  C       0.425160      0.748625     -0.480014
  H       3.346108     -3.201280      0.515904
  H       2.543395     -3.826896      1.982618
  H       3.476999     -2.305831      2.054566
  H      -0.789404     -2.008916      1.102372
  H      -3.074369     -1.777782      1.090630
  H      -3.015239      2.190222     -1.161920
  H      -0.008391      2.882172     -1.658108
  H       1.355721      1.211246     -0.784413
  O      -7.861481     -0.892052     -1.125281
  H      -8.161818     -0.775572     -2.034455
  H      -7.934424     -1.840798     -0.958159
  O      -6.677462      1.884128     -1.525198
  H      -6.053819      2.572037     -1.784998
  H      -7.082464      2.203081     -0.706457
  O      -6.205650      0.503215      1.242301
  H      -6.982059     -0.019685      1.483678
  H      -5.510524      0.196564      1.839634
  O      -5.931525     -0.212080     -3.649975
  H      -6.311959      0.650031     -3.857628
  H      -5.100714     -0.246621     -4.140426
34
Coordinates from ORCA-job pb_P0_cplx E -1183.606177784656
  Pb     -5.419345     -0.226341     -1.110807
  C       2.837263     -2.908209      1.421436
  O       1.608192     -2.233974      1.146480
  C       1.702501     -1.108115      0.443254
  O       2.763822     -0.660503      0.056476
  C       0.394143     -0.473969      0.187824
  C      -0.794114     -1.053949      0.624207
  C      -1.996963     -0.423889      0.359154
  O      -3.201772     -0.919186      0.741180
  C      -2.016554      0.777771     -0.340902
  O      -3.210687      1.372667     -0.589057
  C      -0.822232      1.351744     -0.773484
  O      -0.946555      2.521512     -1.452955
  C       0.382467      0.728684     -0.510685
  H       3.330205     -3.195314      0.492395
  H       2.566021     -3.793581      1.990801
  H       3.497871     -2.269625      2.008500
  H      -0.795997     -1.991495      1.165492
  H      -3.085732     -1.757439      1.206366
  H      -3.076412      2.174268     -1.110403
  H      -0.073877      2.847521     -1.704666
  H       1.306185      1.180460     -0.851794
  O      -7.858395     -0.861641     -1.154437
  H      -8.139087     -0.744028     -2.069707
  H      -7.961691     -1.804567     -0.976794
  O      -6.591863      1.880370     -1.516758
  H      -5.957707      2.546839     -1.788092
  H      -6.976448      2.205514     -0.695193
  O      -6.173424      0.463397      1.218235
  H      -6.974549     -0.031881      1.444759
  H      -5.496021      0.121078      1.819016
  O      -5.878783     -0.183902     -3.670813
  H      -6.258476      0.684137     -3.851650
  H      -5.044323     -0.204311     -4.157347
34
Coordinates from ORCA-job pb_P0_cplx E -1183.606629165439
  Pb     -5.394682     -0.268885     -1.146242
  C       2.841234     -2.888343      1.415137
  O       1.605528     -2.223489      1.148163
  C       1.686530     -1.102243      0.436388
  O       2.740847     -0.653178      0.034153
  C       0.372963     -0.475164      0.191460
  C      -0.807776     -1.047876      0.657875
  C      -2.015332     -0.422439      0.402281
  O      -3.214337     -0.912222      0.809447
  C      -2.045262      0.768375     -0.311797
  O      -3.243869      1.358994     -0.540622
  C      -0.859905      1.334940     -0.778587
  O      -0.994979      2.492041     -1.476026
  C       0.348851      0.715309     -0.527281
  H       3.326649     -3.179552      0.483576
  H       2.581888     -3.770374      1.994514
  H       3.504738     -2.241156      1.988930
  H      -0.799809     -1.976644      1.214120
  H      -3.096578     -1.748345      1.277120
  H      -3.126928      2.155256     -1.075313
  H      -0.125127      2.823578     -1.729651
  H       1.268305      1.158133     -0.890784
  O      -7.853100     -0.812626     -1.166421
  H      -8.128791     -0.701047     -2.082677
  H      -7.987912     -1.748797     -0.977420
  O      -6.524872      1.866507     -1.503722
  H      -5.883331      2.518431     -1.802029
  H      -6.873843      2.198167     -0.669781
  O      -6.110536      0.419472      1.188684
  H      -6.935252     -0.036744      1.412116
  H      -5.449617      0.043530      1.787564
  O      -5.871265     -0.164916     -3.703924
  H      -6.254981      0.705424     -3.862004
  H      -5.041787     -0.174071     -4.197220
34
Coordinates from ORCA-job pb_P0_cplx E -1183.606986793805
  Pb     -5.404787     -0.319769     -1.193377
  C       2.862635     -2.854923      1.440159
  O       1.618188     -2.217345      1.147090
  C       1.690261     -1.085543      0.452102
  O       2.742445     -0.611586      0.074174
  C       0.369804     -0.479835      0.193561
  C      -0.805050     -1.053856      0.674930
  C      -2.020609     -0.445605      0.413115
  O      -3.211906     -0.949120      0.830943
  C      -2.064032      0.737419     -0.308371
  O      -3.270984      1.311374     -0.517993
  C      -0.886288      1.302969     -0.801755
  O      -1.028215      2.446298     -1.519281
  C       0.328975      0.696629     -0.549445
  H       3.379380     -3.127254      0.519649
  H       2.609994     -3.746536      2.007227
  H       3.498394     -2.196722      2.033411
  H      -0.786656     -1.972319      1.248694
  H      -3.087377     -1.795897      1.278239
  H      -3.175882      2.104685     -1.061439
  H      -0.158745      2.788101     -1.763516
  H       1.247191      1.134424     -0.924743
  O      -7.868310     -0.761381     -1.152600
  H      -8.156863     -0.636994     -2.066444
  H      -8.025155     -1.696197     -0.972001
  O      -6.452800      1.879074     -1.480650
  H      -5.793449      2.514256     -1.777404
  H      -6.767420      2.198791     -0.629413
  O      -6.068873      0.377552      1.142430
  H      -6.915089     -0.028271      1.371976
  H      -5.421331     -0.022479      1.740812
  O      -5.934513     -0.115604     -3.737214
  H      -6.294237      0.768928     -3.871094
  H      -5.111035     -0.133219     -4.241744
34
Coordinates from ORCA-job pb_P0_cplx E -1183.607462141700
  Pb     -5.367191     -0.364972     -1.223988
  C       2.847841     -2.840028      1.434921
  O       1.599096     -2.214366      1.133177
  C       1.664353     -1.081186      0.439877
  O       2.714161     -0.599849      0.062426
  C       0.339710     -0.481364      0.187582
  C      -0.825810     -1.050249      0.694180
  C      -2.044935     -0.442855      0.449474
  O      -3.229120     -0.932832      0.902481
  C      -2.100985      0.737199     -0.286717
  O      -3.316321      1.307188     -0.482787
  C      -0.932766      1.291601     -0.808375
  O      -1.090541      2.427807     -1.535387
  C       0.286613      0.687410     -0.570544
  H       3.370895     -3.112294      0.517790
  H       2.599144     -3.732331      2.003694
  H       3.475161     -2.174760      2.030757
  H      -0.796784     -1.959482      1.281659
  H      -3.091838     -1.781882      1.344624
  H      -3.230645      2.094422     -1.044699
  H      -0.226529      2.770943     -1.796044
  H       1.197427      1.121785     -0.967654
  O      -7.840106     -0.734195     -1.159710
  H      -8.131169     -0.614846     -2.071931
  H      -8.017055     -1.664159     -0.969364
  O      -6.362864      1.860599     -1.464472
  H      -5.695421      2.484307     -1.783229
  H      -6.643341      2.193303     -0.600815
  O      -5.996754      0.335351      1.117897
  H      -6.857128     -0.033456      1.352597
  H      -5.365176     -0.088283      1.711695
  O      -5.915530     -0.095597     -3.758730
  H      -6.279921      0.793614     -3.872304
  H      -5.098812     -0.096496     -4.268058
34
Coordinates from ORCA-job pb_P0_cplx E -1183.607777120066
  Pb     -5.393145     -0.403372     -1.266750
  C       2.855087     -2.828469      1.455878
  O       1.607053     -2.215866      1.126436
  C       1.673200     -1.057063      0.474794
  O       2.725610     -0.543764      0.149001
  C       0.346467     -0.472414      0.200839
  C      -0.817250     -1.064061      0.679046
  C      -2.041916     -0.476581      0.416355
  O      -3.222696     -0.985391      0.851320
  C      -2.106046      0.706288     -0.315288
  O      -3.328314      1.252102     -0.540363
  C      -0.938460      1.285666     -0.802165
  O      -1.111241      2.427093     -1.518292
  C       0.288226      0.705321     -0.544442
  H       3.413405     -3.068514      0.549983
  H       2.602297     -3.739559      1.993850
  H       3.447968     -2.170534      2.090778
  H      -0.781435     -1.976862      1.260406
  H      -3.078929     -1.836767      1.281270
  H      -3.246128      2.044969     -1.091765
  H      -0.253156      2.793837     -1.762263
  H       1.195505      1.162120     -0.920418
  O      -7.857521     -0.672445     -1.117581
  H      -8.180916     -0.545065     -2.016745
  H      -8.041166     -1.603755     -0.925685
  O      -6.303033      1.854379     -1.463307
  H      -5.608736      2.455036     -1.788916
  H      -6.543766      2.190354     -0.586955
  O      -5.945038      0.325737      1.077104
  H      -6.809708     -0.002224      1.336431
  H      -5.313089     -0.111721      1.662497
  O      -6.028283     -0.097836     -3.772155
  H      -6.351537      0.807184     -3.885246
  H      -5.215649     -0.127777     -4.287625
34
Coordinates from ORCA-job pb_P0_cplx E -1183.607995552756
  Pb     -5.385511     -0.445874     -1.289601
  C       2.848568     -2.825148      1.432916
  O       1.596428     -2.211321      1.120440
  C       1.655807     -1.045401      0.481077
  O       2.704634     -0.527023      0.152651
  C       0.327209     -0.461069      0.217549
  C      -0.833296     -1.056813      0.699291
  C      -2.059973     -0.472843      0.441244
  O      -3.239596     -0.987167      0.876269
  C      -2.132087      0.705374     -0.296347
  O      -3.358232      1.239268     -0.526841
  C      -0.966156      1.293530     -0.779525
  O      -1.141588      2.434265     -1.496603
  C       0.262703      0.717731     -0.522344
  H       3.398390     -3.055498      0.519517
  H       2.601873     -3.740843      1.965791
  H       3.446235     -2.172433      2.067232
  H      -0.794130     -1.971981      1.277038
  H      -3.085464     -1.844717      1.288364
  H      -3.269198      2.019993     -1.093799
  H      -0.285324      2.798616     -1.750129
  H       1.166113      1.179694     -0.899673
  O      -7.856086     -0.661618     -1.107409
  H      -8.181043     -0.535642     -2.008896
  H      -8.041235     -1.588024     -0.905554
  O      -6.211818      1.838840     -1.477666
  H      -5.501911      2.407519     -1.811361
  H      -6.420185      2.182437     -0.596140
  O      -5.898490      0.326030      1.036665
  H      -6.775286      0.038197      1.310387
  H      -5.270293     -0.126368      1.619654
  O      -6.051532     -0.105984     -3.772390
  H      -6.370291      0.803722     -3.876697
  H      -5.241575     -0.139404     -4.295086
34
Coordinates from ORCA-job pb_P0_cplx E -1183.608104007041
  Pb     -5.409544     -0.424854     -1.279279
  C       2.846844     -2.856463      1.416563
  O       1.599800     -2.217430      1.133472
  C       1.669986     -1.050413      0.498596
  O       2.723353     -0.546200      0.163119
  C       0.347774     -0.448328      0.241988
  C      -0.823563     -1.049174      0.696664
  C      -2.042104     -0.454301      0.429827
  O      -3.235111     -0.968511      0.832328
  C      -2.100057      0.728356     -0.303063
  O      -3.318320      1.264338     -0.562406
  C      -0.921847      1.328824     -0.742088
  O      -1.077043      2.483862     -1.442585
  C       0.300021      0.744119     -0.470601
  H       3.373733     -3.086381      0.490380
  H       2.593435     -3.772593      1.944488
  H       3.466796     -2.220117      2.046755
  H      -0.799458     -1.977080      1.254044
  H      -3.087397     -1.832089      1.234856
  H      -3.200775      2.036657     -1.131921
  H      -0.214877      2.827805     -1.708254
  H       1.209818      1.214520     -0.822536
  O      -7.877860     -0.714801     -1.092357
  H      -8.217744     -0.591983     -1.992210
  H      -8.038303     -1.643452     -0.887829
  O      -6.267872      1.839717     -1.520261
  H      -5.565989      2.412767     -1.849350
  H      -6.492865      2.190265     -0.647184
  O      -5.930642      0.366111      1.042380
  H      -6.793699      0.043219      1.328451
  H      -5.274709     -0.061397      1.611521
  O      -6.097087     -0.137943     -3.757052
  H      -6.424308      0.759647     -3.877667
  H      -5.282726     -0.176650     -4.278762
34
Coordinates from ORCA-job pb_P0_cplx E -1183.608291573944
  Pb     -5.424426     -0.422889     -1.296927
  C       2.863994     -2.824816      1.460014
  O       1.613572     -2.203951      1.153881
  C       1.678129     -1.047062      0.501832
  O       2.729941     -0.537139      0.170084
  C       0.351057     -0.461267      0.229304
  C      -0.818229     -1.069314      0.680304
  C      -2.040605     -0.484589      0.404798
  O      -3.229495     -1.006068      0.807021
  C      -2.101486      0.698500     -0.327161
  O      -3.319964      1.235092     -0.586158
  C      -0.926000      1.301405     -0.770340
  O      -1.086135      2.452635     -1.475791
  C       0.298885      0.725160     -0.493722
  H       3.403784     -3.062676      0.543761
  H       2.614821     -3.736176      1.996840
  H       3.469996     -2.171926      2.089257
  H      -0.788810     -1.992233      1.245106
  H      -3.087586     -1.867669      1.217867
  H      -3.215719      2.014966     -1.148809
  H      -0.224210      2.805113     -1.729859
  H       1.208608      1.199546     -0.843284
  O      -7.887538     -0.684987     -1.090120
  H      -8.244436     -0.541830     -1.976046
  H      -8.060926     -1.616116     -0.899176
  O      -6.256396      1.857880     -1.491078
  H      -5.550883      2.433483     -1.814797
  H      -6.481417      2.192833     -0.613199
  O      -5.921594      0.336316      1.050727
  H      -6.780154      0.002462      1.330541
  H      -5.270490     -0.093215      1.616606
  O      -6.128309     -0.092852     -3.770812
  H      -6.431193      0.816208     -3.872949
  H      -5.319126     -0.144781     -4.297691
34
Coordinates from ORCA-job pb_P0_cplx E -1183.608375427848
  Pb     -5.429151     -0.427300     -1.298286
  C       2.867110     -2.813994      1.473053
  O       1.615266     -2.198001      1.162802
  C       1.677166     -1.045726      0.501653
  O       2.728123     -0.535043      0.166583
  C       0.348364     -0.464676      0.225869
  C      -0.819796     -1.075703      0.674158
  C      -2.043295     -0.494046      0.396105
  O      -3.230802     -1.017541      0.796648
  C      -2.105266      0.691402     -0.332641
  O      -3.324089      1.227411     -0.595037
  C      -0.931444      1.296015     -0.774567
  O      -1.094329      2.448144     -1.477252
  C       0.294683      0.722305     -0.497345
  H       3.409152     -3.054610      0.558047
  H       2.619925     -3.724540      2.013207
  H       3.470028     -2.156325      2.100540
  H      -0.787781     -1.998486      1.239039
  H      -3.087561     -1.880082      1.206567
  H      -3.220296      2.008781     -1.158291
  H      -0.233659      2.799084     -1.735432
  H       1.203342      1.198794     -0.845200
  O      -7.893949     -0.679964     -1.087710
  H      -8.252511     -0.528457     -1.970762
  H      -8.069821     -1.612326     -0.902514
  O      -6.234352      1.860844     -1.491336
  H      -5.521381      2.430253     -1.811453
  H      -6.456004      2.193712     -0.611456
  O      -5.916430      0.332120      1.053006
  H      -6.771925     -0.011594      1.333064
  H      -5.260584     -0.104143      1.614529
  O      -6.140035     -0.078425     -3.767551
  H      -6.433330      0.837104     -3.859964
  H      -5.337705     -0.134937     -4.298048
34
Coordinates from ORCA-job pb_P0_cplx E -1183.608425112044
  Pb     -5.427162     -0.432298     -1.315833
  C       2.866185     -2.808922      1.480302
  O       1.613760     -2.189228      1.180761
  C       1.672800     -1.046954      0.501615
  O       2.721664     -0.545870      0.146950
  C       0.343612     -0.464263      0.231055
  C      -0.825149     -1.070633      0.685407
  C      -2.048062     -0.488035      0.405604
  O      -3.236909     -1.009983      0.804936
  C      -2.108084      0.695449     -0.326198
  O      -3.325382      1.233219     -0.590000
  C      -0.933991      1.296979     -0.772793
  O      -1.092540      2.447313     -1.478453
  C       0.291157      0.720584     -0.495660
  H       3.395787     -3.059479      0.560325
  H       2.622039     -3.714044      2.031134
  H       3.479801     -2.148416      2.093621
  H      -0.793726     -1.992519      1.252134
  H      -3.095832     -1.871763      1.216877
  H      -3.221776      2.008968     -1.162615
  H      -0.230334      2.789583     -1.744070
  H       1.201583      1.191492     -0.846247
  O      -7.890709     -0.675609     -1.088522
  H      -8.261758     -0.525238     -1.968709
  H      -8.075589     -1.604956     -0.900168
  O      -6.224995      1.854699     -1.493723
  H      -5.518129      2.425440     -1.826784
  H      -6.433087      2.187515     -0.610930
  O      -5.890056      0.310748      1.049842
  H      -6.740997     -0.045536      1.330720
  H      -5.227154     -0.136402      1.595867
  O      -6.156231     -0.063253     -3.778627
  H      -6.455318      0.852964     -3.851126
  H      -5.357756     -0.111504     -4.316665
34
Coordinates from ORCA-job pb_P0_cplx E -1183.608448498367
  Pb     -5.451311     -0.435244     -1.325367
  C       2.869901     -2.803516      1.499614
  O       1.618702     -2.183544      1.196150
  C       1.679744     -1.040110      0.518751
  O       2.729173     -0.535917      0.171523
  C       0.351324     -0.461653      0.237632
  C      -0.818956     -1.078242      0.672214
  C      -2.041785     -0.502339      0.379214
  O      -3.232079     -1.034368      0.759906
  C      -2.101172      0.683590     -0.347909
  O      -3.316873      1.214137     -0.631878
  C      -0.925498      1.298558     -0.770384
  O      -1.084770      2.454260     -1.467161
  C       0.299936      0.729438     -0.480121
  H       3.405628     -3.047018      0.581693
  H       2.623395     -3.712701      2.042538
  H       3.478452     -2.146901      2.120851
  H      -0.791006     -2.004023      1.233070
  H      -3.091261     -1.895530      1.172041
  H      -3.208432      1.989582     -1.200424
  H      -0.222598      2.798621     -1.731169
  H       1.210206      1.211014     -0.815509
  O      -7.906862     -0.681666     -1.067334
  H      -8.301234     -0.514076     -1.934267
  H      -8.089277     -1.613058     -0.894610
  O      -6.200534      1.866911     -1.506388
  H      -5.482927      2.429386     -1.825854
  H      -6.409738      2.196494     -0.620873
  O      -5.886498      0.313123      1.047050
  H      -6.727645     -0.064186      1.338072
  H      -5.206022     -0.125935      1.576358
  O      -6.217844     -0.049154     -3.772253
  H      -6.490052      0.874418     -3.837866
  H      -5.424426     -0.120300     -4.317284
34
Coordinates from ORCA-job pb_P0_cplx E -1183.608491800838
  Pb     -5.457891     -0.432408     -1.325533
  C       2.873704     -2.805859      1.501350
  O       1.623152     -2.179619      1.208591
  C       1.684364     -1.045668      0.514335
  O       2.733482     -0.553037      0.148508
  C       0.356900     -0.462666      0.239413
  C      -0.814123     -1.077887      0.673716
  C      -2.036116     -0.498555      0.383701
  O      -3.227076     -1.030165      0.760227
  C      -2.094583      0.689567     -0.339042
  O      -3.310636      1.221885     -0.617636
  C      -0.917503      1.303844     -0.761537
  O      -1.072872      2.462836     -1.453396
  C       0.306706      0.730344     -0.474594
  H       3.396985     -3.060326      0.579112
  H       2.627743     -3.708627      2.054952
  H       3.494883     -2.147913      2.109314
  H      -0.788820     -2.006091      1.230284
  H      -3.088332     -1.889594      1.176474
  H      -3.200516      1.992892     -1.191866
  H      -0.209804      2.804582     -1.717271
  H       1.217679      1.210887     -0.809850
  O      -7.916288     -0.680147     -1.076201
  H      -8.305566     -0.520206     -1.946645
  H      -8.097692     -1.611914     -0.896081
  O      -6.220825      1.864422     -1.514203
  H      -5.507743      2.425791     -1.846410
  H      -6.420756      2.197534     -0.629177
  O      -5.888180      0.319271      1.045277
  H      -6.725640     -0.067270      1.334193
  H      -5.204475     -0.125468      1.566292
  O      -6.226980     -0.057399     -3.772090
  H      -6.506836      0.863899     -3.830286
  H      -5.438684     -0.116886     -4.323897
34
Coordinates from ORCA-job pb_P0_cplx E -1183.608529668033
  Pb     -5.447216     -0.431253     -1.320551
  C       2.867979     -2.808930      1.494762
  O       1.617830     -2.181166      1.203209
  C       1.679610     -1.048149      0.507222
  O       2.729151     -0.558883      0.137992
  C       0.352586     -0.462224      0.236195
  C      -0.817998     -1.072493      0.679135
  C      -2.040562     -0.491107      0.394276
  O      -3.230612     -1.018888      0.781002
  C      -2.098597      0.695247     -0.332203
  O      -3.314668      1.231452     -0.603609
  C      -0.921830      1.303195     -0.765054
  O      -1.079867      2.458778     -1.462069
  C       0.302435      0.727849     -0.483615
  H       3.389334     -3.066397      0.572153
  H       2.621656     -3.710269      2.050813
  H       3.491686     -2.150790      2.100640
  H      -0.791631     -1.998179      1.239927
  H      -3.089451     -1.876278      1.202593
  H      -3.206263      2.003570     -1.177544
  H      -0.217630      2.801575     -1.728640
  H       1.213544      1.203613     -0.826488
  O      -7.906139     -0.685483     -1.083661
  H      -8.291801     -0.528108     -1.955901
  H      -8.087616     -1.617516     -0.900952
  O      -6.223116      1.864237     -1.512314
  H      -5.513497      2.429754     -1.845980
  H      -6.425976      2.199847     -0.629595
  O      -5.891117      0.313769      1.051699
  H      -6.726152     -0.078033      1.337464
  H      -5.205075     -0.132059      1.568049
  O      -6.202864     -0.058435     -3.774802
  H      -6.488004      0.861789     -3.831252
  H      -5.410468     -0.109987     -4.322872
34
Coordinates from ORCA-job pb_P0_cplx E -1183.608573824606
  Pb     -5.443979     -0.433127     -1.321128
  C       2.864877     -2.808252      1.494892
  O       1.615118     -2.179315      1.204375
  C       1.676814     -1.050501      0.501542
  O       2.726316     -0.566640      0.125534
  C       0.350419     -0.462723      0.233380
  C      -0.819275     -1.070114      0.681792
  C      -2.042509     -0.487682      0.401654
  O      -3.230604     -1.015469      0.794227
  C      -2.101930      0.698291     -0.324552
  O      -3.318467      1.236175     -0.588078
  C      -0.926256      1.302334     -0.765287
  O      -1.088072      2.455959     -1.464287
  C       0.298305      0.725657     -0.490057
  H       3.383202     -3.071454      0.572482
  H       2.618428     -3.705910      2.056516
  H       3.492911     -2.148825      2.095099
  H      -0.792250     -1.994592      1.244647
  H      -3.086378     -1.867806      1.225267
  H      -3.214372      2.011132     -1.159651
  H      -0.227910      2.803346     -1.729815
  H       1.209036      1.198104     -0.838504
  O      -7.900261     -0.683289     -1.092655
  H      -8.284773     -0.527519     -1.965256
  H      -8.083762     -1.614355     -0.907396
  O      -6.217320      1.866087     -1.514359
  H      -5.509865      2.430357     -1.855700
  H      -6.412444      2.206964     -0.631158
  O      -5.886619      0.305195      1.055195
  H      -6.717623     -0.092273      1.344254
  H      -5.192875     -0.144705      1.556409
  O      -6.199898     -0.060191     -3.778297
  H      -6.490357      0.859539     -3.829849
  H      -5.409969     -0.104352     -4.331207
34
Coordinates from ORCA-job pb_P0_cplx E -1183.608633560103
  Pb     -5.451210     -0.438079     -1.327793
  C       2.865690     -2.805547      1.496229
  O       1.615537     -2.175703      1.209488
  C       1.675615     -1.049978      0.500846
  O       2.724679     -0.569388      0.118460
  C       0.349057     -0.462130      0.235303
  C      -0.819628     -1.069992      0.685855
  C      -2.044261     -0.488769      0.408703
  O      -3.230032     -1.019551      0.804287
  C      -2.106279      0.696685     -0.317664
  O      -3.323247      1.233641     -0.577494
  C      -0.931401      1.300789     -0.761372
  O      -1.097558      2.453842     -1.460213
  C       0.294205      0.725942     -0.489034
  H       3.380350     -3.072305      0.572587
  H       2.620354     -3.700840      2.062335
  H       3.498178     -2.145347      2.091092
  H      -0.791121     -1.994143      1.249336
  H      -3.080545     -1.863177      1.250106
  H      -3.223009      2.011145     -1.145935
  H      -0.239235      2.810187     -1.720491
  H       1.204168      1.198728     -0.839495
  O      -7.900562     -0.674446     -1.098283
  H      -8.290656     -0.514892     -1.968114
  H      -8.089010     -1.604243     -0.910348
  O      -6.197248      1.871866     -1.527859
  H      -5.488308      2.429064     -1.878815
  H      -6.377945      2.220553     -0.644799
  O      -5.879236      0.293448      1.055369
  H      -6.698742     -0.119048      1.355238
  H      -5.167155     -0.162088      1.524561
  O      -6.219501     -0.061858     -3.781286
  H      -6.507721      0.859184     -3.825678
  H      -5.436563     -0.103505     -4.345095
34
Coordinates from ORCA-job pb_P0_cplx E -1183.608683197780
  Pb     -5.464928     -0.441260     -1.339255
  C       2.869784     -2.803067      1.500426
  O       1.619230     -2.173640      1.214832
  C       1.678561     -1.046675      0.508566
  O       2.727289     -0.564028      0.127940
  C       0.351730     -0.460681      0.241655
  C      -0.816764     -1.072618      0.687021
  C      -2.041832     -0.493691      0.408200
  O      -3.226962     -1.030203      0.798248
  C      -2.105744      0.692614     -0.315233
  O      -3.322251      1.226694     -0.576983
  C      -0.931288      1.301027     -0.753689
  O      -1.098885      2.454869     -1.450548
  C       0.295092      0.728874     -0.479472
  H       3.384161     -3.068432      0.576353
  H       2.624801     -3.698780      2.065745
  H       3.502682     -2.143494      2.095302
  H      -0.787632     -1.998496      1.247610
  H      -3.074582     -1.868004      1.253422
  H      -3.222268      2.008097     -1.139277
  H      -0.241333      2.817046     -1.703884
  H       1.204319      1.205401     -0.825904
  O      -7.907736     -0.662222     -1.099505
  H      -8.306147     -0.497422     -1.964304
  H      -8.102090     -1.589721     -0.909172
  O      -6.181138      1.879620     -1.540940
  H      -5.471810      2.428433     -1.903646
  H      -6.344659      2.234507     -0.655889
  O      -5.865310      0.282886      1.049777
  H      -6.675031     -0.136490      1.367281
  H      -5.138263     -0.173265      1.493149
  O      -6.257436     -0.067868     -3.783690
  H      -6.548303      0.852443     -3.829110
  H      -5.487596     -0.112410     -4.364999
34
Coordinates from ORCA-job pb_P0_cplx E -1183.608743399250
  Pb     -5.481912     -0.442466     -1.355322
  C       2.878865     -2.798661      1.503719
  O       1.626755     -2.171457      1.219990
  C       1.683065     -1.042337      0.517662
  O       2.730212     -0.554901      0.138793
  C       0.354490     -0.460066      0.250480
  C      -0.812773     -1.076524      0.693255
  C      -2.038768     -0.501054      0.412839
  O      -3.222858     -1.043553      0.799192
  C      -2.106439      0.686115     -0.309819
  O      -3.323352      1.217014     -0.574733
  C      -0.932780      1.299377     -0.744465
  O      -1.100282      2.453887     -1.440458
  C       0.295007      0.730371     -0.467704
  H       3.391953     -3.062415      0.578479
  H       2.636047     -3.695073      2.068659
  H       3.511057     -2.138185      2.097971
  H      -0.781025     -2.003674      1.251497
  H      -3.066336     -1.874724      1.264622
  H      -3.223499      2.002018     -1.131947
  H      -0.242113      2.820354     -1.685157
  H       1.202921      1.211407     -0.810894
  O      -7.919198     -0.639472     -1.102176
  H      -8.326415     -0.467707     -1.961881
  H      -8.124349     -1.563115     -0.906441
  O      -6.164240      1.887216     -1.557267
  H      -5.455593      2.426032     -1.935608
  H      -6.307016      2.247739     -0.670964
  O      -5.849589      0.267114      1.039675
  H      -6.646076     -0.162109      1.377122
  H      -5.105338     -0.191465      1.452386
  O      -6.300441     -0.073091     -3.787669
  H      -6.596513      0.844598     -3.835608
  H      -5.545810     -0.121150     -4.388203
34
Coordinates from ORCA-job pb_P0_cplx E -1183.608821042298
  Pb     -5.493342     -0.439875     -1.376315
  C       2.888098     -2.797672      1.502206
  O       1.633672     -2.176271      1.214869
  C       1.687553     -1.035321      0.532843
  O       2.733606     -0.532913      0.170840
  C       0.356577     -0.458626      0.262561
  C      -0.809631     -1.079104      0.703402
  C      -2.036254     -0.507383      0.419914
  O      -3.219628     -1.053552      0.805641
  C      -2.107236      0.678562     -0.304768
  O      -3.323918      1.206918     -0.574510
  C      -0.934593      1.295859     -0.736446
  O      -1.101207      2.449823     -1.434194
  C       0.294853      0.731383     -0.454588
  H       3.409044     -3.048430      0.577468
  H       2.647013     -3.702005      2.055500
  H       3.509921     -2.138612      2.108510
  H      -0.774620     -2.006047      1.261660
  H      -3.059317     -1.880501      1.276704
  H      -3.220688      1.996167     -1.124021
  H      -0.241267      2.817952     -1.670860
  H       1.201273      1.216979     -0.795137
  O      -7.927206     -0.612458     -1.101615
  H      -8.344543     -0.434682     -1.955329
  H      -8.146732     -1.530687     -0.898040
  O      -6.155627      1.895018     -1.571042
  H      -5.452427      2.427700     -1.967102
  H      -6.278182      2.259439     -0.683404
  O      -5.825156      0.247161      1.023051
  H      -6.608058     -0.186214      1.384258
  H      -5.066518     -0.207704      1.412081
  O      -6.341257     -0.081397     -3.795167
  H      -6.653152      0.829997     -3.853895
  H      -5.603392     -0.133457     -4.415048
34
Coordinates from ORCA-job pb_P0_cplx E -1183.608899079879
  Pb     -5.496023     -0.434291     -1.398633
  C       2.898582     -2.794757      1.496384
  O       1.641071     -2.180022      1.206955
  C       1.690005     -1.029783      0.541625
  O       2.733230     -0.514727      0.190769
  C       0.355709     -0.458426      0.273126
  C      -0.807150     -1.078148      0.723926
  C      -2.035806     -0.510695      0.441569
  O      -3.216239     -1.058385      0.838090
  C      -2.112949      0.671593     -0.291888
  O      -3.331398      1.198674     -0.562826
  C      -0.942686      1.287872     -0.732266
  O      -1.109753      2.436989     -1.438516
  C       0.289074      0.726891     -0.450272
  H       3.424459     -3.035471      0.571914
  H       2.661298     -3.705068      2.041256
  H       3.511345     -2.135390      2.110987
  H      -0.766619     -2.001303      1.287927
  H      -3.049924     -1.881411      1.314474
  H      -3.228658      1.991317     -1.109418
  H      -0.248145      2.803188     -1.672223
  H       1.192993      1.211994     -0.798121
  O      -7.931025     -0.581327     -1.108107
  H      -8.354879     -0.398282     -1.957839
  H      -8.166574     -1.493332     -0.896215
  O      -6.148416      1.899609     -1.580390
  H      -5.452776      2.428008     -1.992230
  H      -6.253952      2.265697     -0.692480
  O      -5.806886      0.222257      1.005668
  H      -6.575470     -0.222296      1.382828
  H      -5.033242     -0.231360      1.371620
  O      -6.363315     -0.080888     -3.807006
  H      -6.692381      0.823306     -3.871978
  H      -5.635837     -0.131986     -4.438682
34
Coordinates from ORCA-job pb_P0_cplx E -1183.608976461655
  Pb     -5.496070     -0.427858     -1.423741
  C       2.908947     -2.791895      1.492373
  O       1.647741     -2.189010      1.191958
  C       1.692438     -1.022225      0.555912
  O       2.734172     -0.486523      0.232500
  C       0.355016     -0.459011      0.283169
  C      -0.805247     -1.078931      0.740348
  C      -2.036489     -0.517003      0.457032
  O      -3.212548     -1.064204      0.866640
  C      -2.118631      0.658932     -0.286104
  O      -3.338323      1.184046     -0.559120
  C      -0.950430      1.274790     -0.733302
  O      -1.120922      2.419152     -1.447522
  C       0.283909      0.721114     -0.448573
  H       3.453906     -3.008152      0.572610
  H       2.675272     -3.716350      2.015279
  H       3.500314     -2.135523      2.130993
  H      -0.759804     -1.996528      1.313063
  H      -3.040427     -1.886570      1.342450
  H      -3.232967      1.978749     -1.100942
  H      -0.259021      2.785926     -1.680812
  H       1.185803      1.206574     -0.802280
  O      -7.931515     -0.551137     -1.104850
  H      -8.364652     -0.361098     -1.948532
  H      -8.182115     -1.458478     -0.887988
  O      -6.147235      1.905325     -1.586597
  H      -5.456526      2.432749     -2.008928
  H      -6.240089      2.269021     -0.697615
  O      -5.786071      0.202154      0.986500
  H      -6.539423     -0.256471      1.374794
  H      -4.998437     -0.242091      1.336155
  O      -6.387689     -0.075640     -3.821552
  H      -6.727404      0.824588     -3.891557
  H      -5.667823     -0.128377     -4.461733
34
Coordinates from ORCA-job pb_P0_cplx E -1183.609081486948
  Pb     -5.493355     -0.416465     -1.437457
  C       2.918623     -2.782587      1.502600
  O       1.655124     -2.191582      1.188137
  C       1.696258     -1.020129      0.560390
  O       2.736557     -0.474706      0.250651
  C       0.356994     -0.464483      0.282099
  C      -0.800296     -1.084985      0.743311
  C      -2.034678     -0.528232      0.460184
  O      -3.206095     -1.076877      0.878473
  C      -2.120751      0.644140     -0.287815
  O      -3.341913      1.170014     -0.558782
  C      -0.954738      1.259346     -0.741180
  O      -1.132303      2.399935     -1.460107
  C       0.281537      0.711425     -0.457452
  H       3.479249     -2.986369      0.589945
  H       2.688337     -3.713375      2.015312
  H       3.493151     -2.124783      2.154812
  H      -0.751922     -1.998185      1.322991
  H      -3.032251     -1.901225      1.350207
  H      -3.234285      1.967836     -1.096878
  H      -0.272658      2.766701     -1.700947
  H       1.181211      1.196679     -0.817030
  O      -7.934079     -0.532839     -1.107976
  H      -8.370226     -0.336079     -1.947270
  H      -8.189164     -1.439224     -0.894254
  O      -6.155185      1.911015     -1.578047
  H      -5.465782      2.438319     -1.999759
  H      -6.244531      2.269249     -0.686780
  O      -5.780864      0.197503      0.981494
  H      -6.523335     -0.283153      1.363509
  H      -4.983606     -0.233580      1.328593
  O      -6.402594     -0.060797     -3.831400
  H      -6.741036      0.840183     -3.896448
  H      -5.683732     -0.112643     -4.473097
34
Coordinates from ORCA-job pb_P0_cplx E -1183.609186598727
  Pb     -5.486998     -0.407059     -1.457561
  C       2.923528     -2.771905      1.515854
  O       1.658035     -2.188611      1.196448
  C       1.695709     -1.021643      0.559097
  O       2.735036     -0.477119      0.244760
  C       0.355566     -0.470342      0.280548
  C      -0.798678     -1.088475      0.750654
  C      -2.036720     -0.535270      0.472315
  O      -3.203042     -1.083230      0.903429
  C      -2.126404      0.632205     -0.281608
  O      -3.348659      1.158535     -0.545912
  C      -0.963327      1.244510     -0.746207
  O      -1.151896      2.380698     -1.468922
  C       0.274704      0.700928     -0.468173
  H       3.490694     -2.971626      0.606656
  H       2.697009     -3.703531      2.028006
  H       3.492895     -2.111498      2.170177
  H      -0.747829     -1.996765      1.338216
  H      -3.025457     -1.906433      1.376403
  H      -3.240985      1.957376     -1.084665
  H      -0.297548      2.751100     -1.723049
  H       1.172966      1.183311     -0.835795
  O      -7.928077     -0.518813     -1.114441
  H      -8.371566     -0.316597     -1.947741
  H      -8.187604     -1.424583     -0.902966
  O      -6.154632      1.915212     -1.575525
  H      -5.468459      2.443358     -2.004404
  H      -6.230992      2.271624     -0.681404
  O      -5.763627      0.185883      0.974018
  H      -6.486375     -0.334322      1.347677
  H      -4.946000     -0.229582      1.297624
  O      -6.423827     -0.040304     -3.843237
  H      -6.759868      0.864302     -3.888707
  H      -5.709911     -0.081287     -4.491541
34
Coordinates from ORCA-job pb_P0_cplx E -1183.609246617335
  Pb     -5.482869     -0.397470     -1.463169
  C       2.927770     -2.762381      1.528271
  O       1.661364     -2.182690      1.208892
  C       1.696358     -1.025601      0.552826
  O       2.735022     -0.487845      0.224779
  C       0.355984     -0.476862      0.273974
  C      -0.796512     -1.093883      0.748916
  C      -2.036391     -0.542598      0.473270
  O      -3.200177     -1.088998      0.909049
  C      -2.128198      0.621901     -0.282965
  O      -3.351492      1.146900     -0.543024
  C      -0.966787      1.233478     -0.753803
  O      -1.162462      2.366503     -1.478639
  C       0.271975      0.691733     -0.479144
  H       3.493378     -2.967664      0.619530
  H       2.703790     -3.689321      2.049447
  H       3.500521     -2.097211      2.174809
  H      -0.745064     -1.999877      1.340010
  H      -3.024373     -1.912996      1.380004
  H      -3.245554      1.943895     -1.082435
  H      -0.313252      2.741643     -1.741382
  H       1.169617      1.172533     -0.849539
  O      -7.922761     -0.521970     -1.120262
  H      -8.367151     -0.315471     -1.952098
  H      -8.177088     -1.431942     -0.917511
  O      -6.160184      1.920405     -1.562420
  H      -5.470041      2.450969     -1.981941
  H      -6.241015      2.270169     -0.665946
  O      -5.770526      0.192472      0.975604
  H      -6.485373     -0.350652      1.332467
  H      -4.947981     -0.202915      1.306448
  O      -6.427155     -0.022564     -3.848901
  H      -6.747084      0.887876     -3.882001
  H      -5.708631     -0.059520     -4.493090
34
Coordinates from ORCA-job pb_P0_cplx E -1183.609305860219
  Pb     -5.478899     -0.394269     -1.478048
  C       2.927860     -2.760011      1.529857
  O       1.661248     -2.174625      1.223988
  C       1.693729     -1.029688      0.546845
  O       2.730751     -0.504699      0.193615
  C       0.353043     -0.478024      0.276274
  C      -0.797625     -1.089917      0.763077
  C      -2.037917     -0.537622      0.492932
  O      -3.201382     -1.081556      0.937333
  C      -2.131928      0.623966     -0.269088
  O      -3.355833      1.147179     -0.524094
  C      -0.972749      1.231092     -0.750849
  O      -1.171051      2.359921     -1.480521
  C       0.266395      0.686873     -0.481459
  H       3.477157     -2.980728      0.614754
  H       2.705269     -3.677899      2.067297
  H       3.517087     -2.091280      2.157673
  H      -0.744727     -1.993907      1.356828
  H      -3.023191     -1.902197      1.413231
  H      -3.255285      1.942723     -1.069118
  H      -0.323761      2.736131     -1.747808
  H       1.163314      1.163226     -0.858432
  O      -7.912566     -0.527997     -1.131497
  H      -8.361971     -0.320495     -1.960486
  H      -8.163207     -1.438408     -0.929588
  O      -6.152048      1.923703     -1.564727
  H      -5.466432      2.454461     -1.989213
  H      -6.223412      2.273839     -0.666434
  O      -5.764531      0.181566      0.963625
  H      -6.464430     -0.382796      1.320675
  H      -4.928857     -0.200739      1.278507
  O      -6.439703     -0.011125     -3.854928
  H      -6.761782      0.899463     -3.876161
  H      -5.724908     -0.036115     -4.504034
34
Coordinates from ORCA-job pb_P0_cplx E -1183.609383115010
  Pb     -5.475662     -0.392351     -1.497595
  C       2.927600     -2.761087      1.529047
  O       1.661871     -2.165190      1.241634
  C       1.691999     -1.034311      0.541554
  O       2.726864     -0.525326      0.158705
  C       0.351124     -0.477514      0.281271
  C      -0.798350     -1.083163      0.780936
  C      -2.037457     -0.528290      0.515154
  O      -3.201766     -1.065680      0.968831
  C      -2.133142      0.628988     -0.253280
  O      -3.357458      1.147761     -0.504744
  C      -0.976301      1.231087     -0.746030
  O      -1.174610      2.355631     -1.481497
  C       0.263226      0.683325     -0.480697
  H       3.453254     -3.003717      0.605365
  H       2.705665     -3.666865      2.087331
  H       3.538795     -2.089000      2.132306
  H      -0.743554     -1.985419      1.376754
  H      -3.020613     -1.884118      1.447534
  H      -3.264016      1.938921     -1.055708
  H      -0.327806      2.732463     -1.749642
  H       1.159785      1.155131     -0.863761
  O      -7.899438     -0.541582     -1.140246
  H      -8.354437     -0.333309     -1.966913
  H      -8.141413     -1.454564     -0.940420
  O      -6.146146      1.927657     -1.567540
  H      -5.461749      2.459517     -1.995969
  H      -6.208930      2.274637     -0.666402
  O      -5.765284      0.169496      0.942563
  H      -6.448565     -0.411374      1.304232
  H      -4.916859     -0.193892      1.248982
  O      -6.458941      0.001782     -3.862329
  H      -6.784771      0.911400     -3.876760
  H      -5.745252     -0.010998     -4.512637
34
Coordinates from ORCA-job pb_P0_cplx E -1183.609484850510
  Pb     -5.461766     -0.382812     -1.522654
  C       2.929217     -2.758970      1.527123
  O       1.664945     -2.146227      1.270068
  C       1.687400     -1.046969      0.521905
  O       2.715079     -0.571164      0.080640
  C       0.345759     -0.480430      0.283215
  C      -0.799604     -1.072068      0.810609
  C      -2.036728     -0.510490      0.555934
  O      -3.201179     -1.033136      1.030842
  C      -2.136829      0.640206     -0.224883
  O      -3.363380      1.157998     -0.465331
  C      -0.984691      1.228024     -0.743967
  O      -1.180584      2.344622     -1.491576
  C       0.254772      0.670886     -0.490054
  H       3.407825     -3.050135      0.591840
  H       2.712538     -3.637045      2.130183
  H       3.579026     -2.076972      2.076846
  H      -0.740752     -1.969645      1.412500
  H      -3.019067     -1.846076      1.517492
  H      -3.282706      1.939468     -1.033094
  H      -0.332101      2.715267     -1.762153
  H       1.148694      1.131615     -0.891978
  O      -7.880055     -0.570174     -1.168262
  H      -8.336863     -0.363017     -1.994473
  H      -8.108791     -1.487454     -0.973256
  O      -6.140032      1.935431     -1.556149
  H      -5.462039      2.474176     -1.985233
  H      -6.199491      2.273363     -0.651135
  O      -5.776121      0.147466      0.916241
  H      -6.442652     -0.452654      1.276335
  H      -4.920214     -0.189495      1.231888
  O      -6.459211      0.027333     -3.876128
  H      -6.799221      0.932275     -3.879395
  H      -5.743519      0.036851     -4.523915
34
Coordinates from ORCA-job pb_P0_cplx E -1183.609598162355
  Pb     -5.450506     -0.366880     -1.553873
  C       2.935928     -2.751801      1.534297
  O       1.672648     -2.128515      1.295209
  C       1.686074     -1.059386      0.504967
  O       2.705407     -0.613076      0.016072
  C       0.343648     -0.485560      0.283545
  C      -0.796569     -1.062808      0.838242
  C      -2.033261     -0.497089      0.592616
  O      -3.195061     -1.006499      1.091451
  C      -2.137887      0.644369     -0.200628
  O      -3.365013      1.164382     -0.426959
  C      -0.991879      1.217061     -0.747097
  O      -1.190675      2.323586     -1.509242
  C       0.248357      0.654234     -0.505298
  H       3.375576     -3.090060      0.595582
  H       2.726556     -3.601916      2.179026
  H       3.613210     -2.058391      2.034407
  H      -0.731771     -1.953139      1.450000
  H      -3.009666     -1.810728      1.592379
  H      -3.294195      1.939309     -1.003041
  H      -0.341132      2.690086     -1.781943
  H       1.136937      1.104143     -0.930592
  O      -7.866025     -0.589074     -1.197349
  H      -8.326718     -0.376914     -2.020994
  H      -8.085333     -1.510409     -1.010390
  O      -6.136154      1.951215     -1.539781
  H      -5.463414      2.497600     -1.968438
  H      -6.189609      2.274816     -0.629838
  O      -5.787267      0.112518      0.884306
  H      -6.431308     -0.512326      1.243589
  H      -4.920650     -0.195259      1.207679
  O      -6.473009      0.060334     -3.891797
  H      -6.831393      0.957272     -3.886547
  H      -5.758187      0.088951     -4.539532
34
Coordinates from ORCA-job pb_P0_cplx E -1183.609712602691
  Pb     -5.433593     -0.349816     -1.568262
  C       2.940589     -2.741000      1.545813
  O       1.677606     -2.113270      1.311209
  C       1.682814     -1.077765      0.477353
  O       2.694093     -0.663175     -0.054426
  C       0.341032     -0.495697      0.270148
  C      -0.793903     -1.056037      0.851568
  C      -2.029512     -0.482014      0.618741
  O      -3.186948     -0.973379      1.142726
  C      -2.137738      0.652515     -0.182502
  O      -3.364939      1.184857     -0.385128
  C      -0.997464      1.204764     -0.759707
  O      -1.199065      2.303959     -1.533526
  C       0.242078      0.632977     -0.535115
  H       3.347987     -3.132208      0.613131
  H       2.739145     -3.557288      2.235378
  H       3.637975     -2.032294      1.993766
  H      -0.724364     -1.938203      1.474668
  H      -3.001557     -1.767739      1.658583
  H      -3.298937      1.951631     -0.971041
  H      -0.347799      2.661461     -1.813925
  H       1.123072      1.070374     -0.988759
  O      -7.854059     -0.612930     -1.234060
  H      -8.306503     -0.398666     -2.061603
  H      -8.063751     -1.539169     -1.057312
  O      -6.139179      1.962074     -1.505992
  H      -5.470239      2.520714     -1.926824
  H      -6.196815      2.267634     -0.591130
  O      -5.811979      0.077346      0.871407
  H      -6.452402     -0.552869      1.220555
  H      -4.952975     -0.214591      1.225568
  O      -6.453648      0.095016     -3.903122
  H      -6.836760      0.980468     -3.893773
  H      -5.734602      0.142368     -4.544381
34
Coordinates from ORCA-job pb_P0_cplx E -1183.609845151826
  Pb     -5.419859     -0.321988     -1.604840
  C       2.947999     -2.717102      1.574592
  O       1.679956     -2.104495      1.323846
  C       1.678094     -1.090186      0.463521
  O       2.685651     -0.687652     -0.084802
  C       0.334824     -0.511825      0.257100
  C      -0.793265     -1.057777      0.863644
  C      -2.032010     -0.483160      0.642398
  O      -3.179232     -0.963392      1.199413
  C      -2.146280      0.641164     -0.172574
  O      -3.371630      1.186859     -0.352772
  C      -1.013113      1.174180     -0.780926
  O      -1.227167      2.262595     -1.568329
  C       0.227389      0.602000     -0.570296
  H       3.356458     -3.134551      0.653735
  H       2.752860     -3.514188      2.288014
  H       3.641231     -1.990618      1.999776
  H      -0.716378     -1.926415      1.505176
  H      -2.985810     -1.745029      1.733680
  H      -3.305029      1.952671     -0.942729
  H      -0.379460      2.615723     -1.865942
  H       1.100037      1.028229     -1.050984
  O      -7.836765     -0.610488     -1.257512
  H      -8.298880     -0.381414     -2.075997
  H      -8.048084     -1.539294     -1.093393
  O      -6.130454      1.980911     -1.480204
  H      -5.469603      2.551167     -1.897407
  H      -6.176723      2.264731     -0.558336
  O      -5.798593      0.021927      0.843793
  H      -6.408557     -0.646189      1.181934
  H      -4.924196     -0.239255      1.194520
  O      -6.471695      0.149902     -3.915732
  H      -6.874159      1.027341     -3.887862
  H      -5.759897      0.215665     -4.564479
34
Coordinates from ORCA-job pb_P0_cplx E -1183.609946426870
  Pb     -5.433173     -0.319820     -1.603263
  C       2.954189     -2.705253      1.593884
  O       1.682017     -2.114376      1.313914
  C       1.685051     -1.086456      0.468009
  O       2.699340     -0.664890     -0.052705
  C       0.341131     -0.518492      0.246226
  C      -0.787384     -1.067456      0.846573
  C      -2.029863     -0.498118      0.624525
  O      -3.170302     -0.982554      1.181632
  C      -2.146377      0.624419     -0.187936
  O      -3.369064      1.179114     -0.368167
  C      -1.011506      1.159288     -0.793858
  O      -1.234900      2.248009     -1.579029
  C       0.230517      0.595050     -0.583427
  H       3.397474     -3.105557      0.681470
  H       2.755101     -3.511811      2.295596
  H       3.622697     -1.970303      2.042625
  H      -0.710433     -1.932764      1.493043
  H      -2.972534     -1.754779      1.727453
  H      -3.291779      1.950222     -0.947255
  H      -0.393117      2.603820     -1.888613
  H       1.101814      1.024987     -1.063568
  O      -7.852621     -0.586968     -1.254399
  H      -8.313430     -0.347962     -2.070936
  H      -8.074887     -1.514754     -1.096547
  O      -6.127336      1.985450     -1.472904
  H      -5.460504      2.552537     -1.882805
  H      -6.169570      2.261530     -0.548819
  O      -5.801961      0.005521      0.854761
  H      -6.418359     -0.659529      1.185786
  H      -4.928581     -0.263964      1.198064
  O      -6.482556      0.163598     -3.911409
  H      -6.877740      1.042608     -3.883147
  H      -5.773698      0.219699     -4.564745
34
Coordinates from ORCA-job pb_P0_cplx E -1183.610042691873
  Pb     -5.418445     -0.316911     -1.616103
  C       2.952203     -2.699739      1.589951
  O       1.679324     -2.109450      1.316123
  C       1.674926     -1.095637      0.452608
  O       2.683794     -0.690169     -0.089949
  C       0.332490     -0.523804      0.240066
  C      -0.790537     -1.057883      0.863117
  C      -2.033760     -0.484331      0.655936
  O      -3.168231     -0.961266      1.232284
  C      -2.156027      0.632283     -0.167454
  O      -3.377558      1.195289     -0.332380
  C      -1.025326      1.151730     -0.797227
  O      -1.253901      2.233072     -1.590189
  C       0.215182      0.581251     -0.599718
  H       3.382472     -3.118756      0.680079
  H       2.760054     -3.488719      2.312715
  H       3.632254     -1.959667      2.011273
  H      -0.711349     -1.916956      1.517357
  H      -2.965711     -1.719269      1.793249
  H      -3.299548      1.960802     -0.921188
  H      -0.418224      2.583108     -1.920144
  H       1.083666      0.998969     -1.094529
  O      -7.837021     -0.589474     -1.279476
  H      -8.291591     -0.353787     -2.098542
  H      -8.055966     -1.517846     -1.123853
  O      -6.117421      1.980529     -1.459727
  H      -5.455540      2.554709     -1.873411
  H      -6.147835      2.249378     -0.531135
  O      -5.797683     -0.021928      0.847299
  H      -6.417013     -0.687310      1.167066
  H      -4.925580     -0.290767      1.187350
  O      -6.464392      0.180188     -3.919122
  H      -6.869802      1.056138     -3.878083
  H      -5.760243      0.256269     -4.574213
34
Coordinates from ORCA-job pb_P0_cplx E -1183.610110883511
  Pb     -5.416373     -0.310453     -1.621556
  C       2.951396     -2.704800      1.578864
  O       1.680487     -2.105454      1.320208
  C       1.671318     -1.100018      0.447177
  O       2.675314     -0.706990     -0.113019
  C       0.329956     -0.522343      0.244147
  C      -0.790645     -1.046182      0.880994
  C      -2.032279     -0.468795      0.679565
  O      -3.165047     -0.937005      1.265354
  C      -2.157556      0.641806     -0.153241
  O      -3.377157      1.210158     -0.320639
  C      -1.028606      1.151442     -0.795606
  O      -1.255623      2.227753     -1.594759
  C       0.211044      0.576705     -0.601544
  H       3.361964     -3.137983      0.666416
  H       2.764495     -3.482175      2.315316
  H       3.646727     -1.966608      1.978709
  H      -0.710534     -1.902639      1.538494
  H      -2.957979     -1.685053      1.839232
  H      -3.297916      1.971578     -0.914315
  H      -0.421329      2.568535     -1.938297
  H       1.080162      0.986301     -1.101753
  O      -7.829159     -0.604119     -1.288915
  H      -8.284436     -0.369086     -2.108537
  H      -8.042785     -1.534885     -1.138680
  O      -6.120069      1.986086     -1.460941
  H      -5.459320      2.565040     -1.864256
  H      -6.155058      2.246036     -0.529593
  O      -5.812972     -0.041417      0.839813
  H      -6.428461     -0.714170      1.153916
  H      -4.936331     -0.305250      1.179063
  O      -6.453262      0.188767     -3.923758
  H      -6.858558      1.065014     -3.884035
  H      -5.743750      0.270252     -4.573798
34
Coordinates from ORCA-job pb_P0_cplx E -1183.610170021424
  Pb     -5.404413     -0.304686     -1.634758
  C       2.946139     -2.711345      1.564324
  O       1.677227     -2.102822      1.322130
  C       1.663862     -1.100660      0.446209
  O       2.663351     -0.714231     -0.126773
  C       0.322569     -0.517756      0.252900
  C      -0.795179     -1.031131      0.904868
  C      -2.035110     -0.450164      0.707360
  O      -3.168907     -0.907569      1.304751
  C      -2.160039      0.649666     -0.138725
  O      -3.374908      1.220264     -0.309568
  C      -1.036218      1.150037     -0.794293
  O      -1.267035      2.218506     -1.601233
  C       0.203428      0.573238     -0.601718
  H       3.338334     -3.153080      0.647566
  H       2.764792     -3.482505      2.308806
  H       3.654038     -1.976716      1.949865
  H      -0.712469     -1.883984      1.566852
  H      -2.958350     -1.645604      1.889801
  H      -3.291455      1.981138     -0.901623
  H      -0.436275      2.544856     -1.967657
  H       1.073041      0.973947     -1.107578
  O      -7.813106     -0.614173     -1.295101
  H      -8.270106     -0.378111     -2.113139
  H      -8.020696     -1.546394     -1.149377
  O      -6.119417      1.991570     -1.459692
  H      -5.460463      2.577172     -1.857130
  H      -6.153290      2.238287     -0.526395
  O      -5.808346     -0.068094      0.827687
  H      -6.413871     -0.755480      1.133581
  H      -4.932258     -0.320180      1.166217
  O      -6.446010      0.197878     -3.932331
  H      -6.853443      1.071528     -3.893736
  H      -5.737755      0.286645     -4.582063
34
Coordinates from ORCA-job pb_P0_cplx E -1183.610242535136
  Pb     -5.394882     -0.298274     -1.643261
  C       2.949598     -2.707982      1.559040
  O       1.679672     -2.098324      1.324381
  C       1.660207     -1.104743      0.439148
  O       2.654855     -0.724964     -0.147539
  C       0.317665     -0.520567      0.253783
  C      -0.795218     -1.026864      0.919095
  C      -2.034337     -0.442969      0.727684
  O      -3.163848     -0.889501      1.338828
  C      -2.165163      0.650331     -0.124512
  O      -3.381022      1.223676     -0.290173
  C      -1.046022      1.142812     -0.794837
  O      -1.278405      2.206062     -1.608010
  C       0.194282      0.564260     -0.607992
  H       3.331522     -3.158956      0.642072
  H       2.774144     -3.473163      2.311626
  H       3.662450     -1.971487      1.932960
  H      -0.708763     -1.875541      1.585973
  H      -2.948189     -1.624936      1.926570
  H      -3.295020      1.979269     -0.890833
  H      -0.449775      2.516514     -1.992234
  H       1.061758      0.958069     -1.123391
  O      -7.804746     -0.612678     -1.306704
  H      -8.253614     -0.381615     -2.131172
  H      -8.005237     -1.547268     -1.163758
  O      -6.124683      1.993897     -1.449906
  H      -5.466057      2.582505     -1.842623
  H      -6.153427      2.227114     -0.511799
  O      -5.813501     -0.076133      0.814955
  H      -6.421646     -0.764534      1.106787
  H      -4.939595     -0.329167      1.165600
  O      -6.435188      0.208629     -3.939344
  H      -6.846386      1.080591     -3.897075
  H      -5.723769      0.305983     -4.583310
34
Coordinates from ORCA-job pb_P0_cplx E -1183.610286797888
  Pb     -5.383013     -0.293183     -1.646515
  C       2.948253     -2.707055      1.555836
  O       1.678093     -2.095317      1.324839
  C       1.655691     -1.108630      0.432326
  O       2.647384     -0.736299     -0.163983
  C       0.313407     -0.521517      0.252803
  C      -0.795377     -1.019301      0.930759
  C      -2.034194     -0.433017      0.743324
  O      -3.159618     -0.869686      1.369881
  C      -2.168599      0.654226     -0.116897
  O      -3.386173      1.229206     -0.278107
  C      -1.052479      1.138438     -0.799263
  O      -1.286406      2.196906     -1.618770
  C       0.187271      0.557500     -0.617097
  H       3.324315     -3.163416      0.639471
  H       2.775038     -3.469523      2.311599
  H       3.663835     -1.970939      1.924322
  H      -0.705972     -1.861517      1.605136
  H      -2.940391     -1.601413      1.959923
  H      -3.300516      1.979580     -0.886592
  H      -0.460865      2.489123     -2.023013
  H       1.052743      0.942444     -1.143182
  O      -7.795423     -0.618906     -1.318798
  H      -8.240225     -0.392502     -2.145775
  H      -7.986026     -1.556264     -1.181128
  O      -6.129636      1.996700     -1.437051
  H      -5.470166      2.590140     -1.822780
  H      -6.158505      2.220142     -0.497011
  O      -5.817501     -0.088158      0.813362
  H      -6.425449     -0.783477      1.088681
  H      -4.947332     -0.340245      1.173080
  O      -6.422935      0.222791     -3.947224
  H      -6.836057      1.094622     -3.898184
  H      -5.705512      0.328591     -4.583946
34
Coordinates from ORCA-job pb_P0_cplx E -1183.610356019999
  Pb     -5.375666     -0.293790     -1.648790
  C       2.946796     -2.711506      1.546453
  O       1.676225     -2.097840      1.318642
  C       1.654516     -1.104088      0.434751
  O       2.646073     -0.727369     -0.158116
  C       0.312070     -0.515971      0.259269
  C      -0.792880     -1.008549      0.946280
  C      -2.032725     -0.423600      0.758465
  O      -3.153635     -0.853474      1.397316
  C      -2.172733      0.654255     -0.109618
  O      -3.393546      1.223777     -0.274154
  C      -1.059880      1.135450     -0.798926
  O      -1.299295      2.186812     -1.626037
  C       0.181075      0.557649     -0.617619
  H       3.326172     -3.155667      0.626134
  H       2.771471     -3.485079      2.289830
  H       3.659280     -1.980276      1.928257
  H      -0.700587     -1.843632      1.628955
  H      -2.928504     -1.579031      1.992318
  H      -3.310623      1.975006     -0.881372
  H      -0.479065      2.460030     -2.053292
  H       1.043168      0.936932     -1.153355
  O      -7.791586     -0.603446     -1.329636
  H      -8.230060     -0.384268     -2.161594
  H      -7.977159     -1.541943     -1.190390
  O      -6.131354      1.998316     -1.428652
  H      -5.472715      2.592266     -1.814830
  H      -6.149493      2.215300     -0.487068
  O      -5.811119     -0.102674      0.814739
  H      -6.424144     -0.800588      1.075267
  H      -4.943374     -0.365385      1.174275
  O      -6.416822      0.224811     -3.957832
  H      -6.833480      1.094205     -3.906361
  H      -5.698743      0.333412     -4.593283
34
Coordinates from ORCA-job pb_P0_cplx E -1183.610376304900
  Pb     -5.360144     -0.285298     -1.652934
  C       2.940885     -2.715199      1.537715
  O       1.670787     -2.097499      1.316104
  C       1.647077     -1.106216      0.429481
  O       2.636298     -0.734702     -0.171107
  C       0.305585     -0.514190      0.260609
  C      -0.794517     -0.994428      0.964623
  C      -2.034345     -0.406760      0.783032
  O      -3.150104     -0.826441      1.443428
  C      -2.178344      0.661219     -0.098367
  O      -3.399324      1.230768     -0.257017
  C      -1.070961      1.129388     -0.804369
  O      -1.315527      2.171217     -1.641846
  C       0.169289      0.549542     -0.627607
  H       3.315567     -3.158693      0.614949
  H       2.765532     -3.489865      2.279916
  H       3.657127     -1.986236      1.917209
  H      -0.698551     -1.820574      1.657821
  H      -2.919828     -1.544515      2.046384
  H      -3.320999      1.979880     -0.867650
  H      -0.501217      2.428123     -2.090845
  H       1.026588      0.918983     -1.177923
  O      -7.775104     -0.610421     -1.348458
  H      -8.210560     -0.395248     -2.182767
  H      -7.949140     -1.551705     -1.212347
  O      -6.130831      2.003820     -1.416179
  H      -5.474920      2.603777     -1.797234
  H      -6.146173      2.212230     -0.473007
  O      -5.806183     -0.124817      0.808455
  H      -6.414203     -0.832835      1.055529
  H      -4.938603     -0.381559      1.172504
  O      -6.400137      0.238060     -3.963764
  H      -6.826804      1.103118     -3.908156
  H      -5.680556      0.357121     -4.596159
