34
charge=+2 | mult=2 | uhf=1 | uks=true | species=cu_P0_cplx | label=[Cu(LH2)(H2O)4]2+ | formula=C8H16O9Cu1 | role=product | protonation=P0 | metal=Cu | config=d9, OPEN SHELL DOUBLET (UKS) | ligand_source=xtb-preoptimised ligand | preopt=GFN2-xTB/ALPB(water)/opt-tight | conformer_search=systematic torsion enumeration (3 torsions, 8 start geometries) + 12 seeded random water reorientations + GFN2-xTB/ALPB(water) opt-tight | conformers_unique=10 | conformers_within_3kcal=9 | E_xtb_Eh=-65.23012349 | preopt_is_not_a_report_quantity=true | builder=build_structures.py+run_xtb_preopt.py+build_rotamers.py
Cu    -4.95984201    -0.10630518    -0.72820660
C      3.45343274    -1.51452282     1.17665735
O      2.41780902    -0.72309318     0.60119045
C      1.18961439    -0.88410727     1.08453454
O      0.91756799    -1.66205633     1.98058693
C      0.18804750    -0.02495172     0.41451988
C     -1.13660661    -0.11358221     0.83803533
C     -2.10908375     0.67495472     0.25111624
O     -3.40698379     0.64761579     0.62877370
C     -1.75857136     1.57079104    -0.79196256
O     -2.62328745     2.34315956    -1.41393681
C     -0.39847295     1.64573382    -1.21236449
O     -0.06238591     2.48520577    -2.19715066
C      0.55672675     0.84966977    -0.60893661
H      3.55527551    -1.28726673     2.23886930
H      4.36026312    -1.25619643     0.63875361
H      3.22299058    -2.57495825     1.06352256
H     -1.36956803    -0.80233748     1.63511740
H     -3.52420976     0.10906356     1.43216367
H     -3.56858828     2.25363610    -1.09117938
H     -0.84579010     2.98015681    -2.50676377
H      1.58092442     0.91567535    -0.93350227
O     -6.55150072    -0.47534905    -1.96812155
H     -6.56023221    -1.29290817    -2.47881505
H     -7.44239610    -0.33331127    -1.62718227
O     -5.23812109     2.04357734    -0.91834068
H     -5.62321291     2.49619068    -0.15684548
H     -5.71688684     2.33233963    -1.70687029
O     -5.42859652    -1.22838558     0.98455145
H     -5.41173799    -2.19203684     0.93748110
H     -6.20832066    -0.97547848     1.49332321
O     -3.42910342    -0.59279305    -2.07227977
H     -3.55211176    -0.21781493    -2.95359483
H     -3.20101849    -1.52280888    -2.18619742
