32
charge=+0 | mult=2 | uhf=1 | uks=true | species=cu_P2_cplx | label=[Cu(L)(H2O)4]0 | formula=C8H14O9Cu1 | role=product | protonation=P2 | metal=Cu | config=d9, OPEN SHELL DOUBLET (UKS) | ligand_source=xtb-preoptimised ligand | preopt=GFN2-xTB/ALPB(water)/opt-tight | conformer_search=systematic torsion enumeration (2 torsions, 4 start geometries) + 12 seeded random water reorientations + GFN2-xTB/ALPB(water) opt-tight | conformers_unique=15 | conformers_within_3kcal=12 | E_xtb_Eh=-64.87665156 | preopt_is_not_a_report_quantity=true | builder=build_structures.py+run_xtb_preopt.py+build_rotamers.py
Cu    -4.55640175     0.34023851    -0.87235294
C      3.95773740    -0.91513674     0.80737969
O      2.70524445    -0.25871304     0.62084477
C      1.66796268    -1.02751947     0.24872264
O      1.79785465    -2.23253487     0.07342821
C      0.42141785    -0.28922385     0.08639328
C     -0.71714215    -0.98960758    -0.30169949
C     -1.93293097    -0.33081615    -0.50628745
O     -2.98187944    -0.90928147    -0.99550871
C     -2.00639628     1.07425650    -0.19170980
O     -3.14316470     1.68898310    -0.19640395
C     -0.81996710     1.76605579     0.16499628
O     -0.91163647     3.10903082     0.40327524
C      0.36993247     1.09819141     0.31003550
H      3.88755176    -1.62546845     1.63276766
H      4.66884824    -0.12591088     1.03026761
H      4.23710882    -1.45447624    -0.09915415
H     -0.64367020    -2.05053295    -0.49035731
H     -1.84710647     3.35176675     0.26517788
H      1.25503880     1.63627219     0.60601857
O     -5.79184260    -1.48170751    -0.80154279
H     -5.10325918    -2.13949171    -0.65134755
H     -6.26895956    -1.36965643     0.03046018
O     -5.91303553     1.95453535    -1.35785323
H     -6.21282649     1.69574580    -2.23880438
H     -5.35495071     2.73278253    -1.46400295
O     -5.63616833     0.57790628     1.16706873
H     -5.00616458     1.04275882     1.72751395
H     -6.30313832     1.22576465     0.90333352
O     -4.95291095    -0.00685221    -3.14326609
H     -5.54561018    -0.76505475    -3.05922084
H     -4.11476559    -0.34724057    -3.47209365
