20
charge=-1 | mult=1 | uhf=0 | uks=false | species=lig_P1_LH1m | label=LH- (mono-deprotonated at the 4-OH) | formula=C8H7O5 | role=ligand | protonation=P1 | metal=none | preopt=GFN2-xTB/ALPB(water)/opt-tight | conformer_search=systematic torsion enumeration (3 torsions, 8 start geometries) + RDKit ETKDGv3 (60 unpruned embeddings) + MMFF94 + GFN2-xTB/ALPB(water) opt-tight | conformers_unique=10 | conformers_within_3kcal=2 | E_xtb_Eh=-41.37635180 | preopt_is_not_a_report_quantity=true | builder=build_structures.py+run_xtb_preopt.py+build_rotamers.py
C      2.65523087    -2.98911309     0.84308421
O      1.43060948    -2.31619321     0.55989976
C      1.50844536    -0.97793487     0.36983665
O      2.59154890    -0.39964664     0.44268589
C      0.24100751    -0.35221739     0.08788989
C     -0.95088365    -1.09409600     0.02215352
C     -2.13539243    -0.46403566    -0.24795555
O     -3.32439436    -1.15220397    -0.32300702
C     -2.20392852     0.94106180    -0.46721402
O     -3.31914658     1.52847553    -0.71967115
C     -0.98018364     1.66445026    -0.39507725
O     -1.05836632     3.02121820    -0.61082103
C      0.20509046     1.03688477    -0.12568028
H      3.35837359    -2.84930400     0.02004696
H      2.38823757    -4.03480195     0.95953663
H      3.09910769    -2.58972900     1.75675908
H     -0.93556990    -2.16007554     0.18346697
H     -3.99338827    -0.46844402    -0.52586974
H     -2.00728981     3.18927893    -0.77864416
H      1.12359533     1.60189226    -0.07453511
