25
charge=+2 | mult=1 | uhf=0 | uks=false | species=pb_aquo8 | label=[Pb(H2O)8]2+ | formula=H16O8Pb1 | role=reactant | protonation=n-a | metal=Pb | config=6s2, closed shell | preopt=GFN2-xTB/ALPB(water)/opt-tight | conformer_search=systematic torsion enumeration (0 torsions, 1 start geometries) + 20 seeded random water reorientations + GFN2-xTB/ALPB(water) opt-tight | conformers_unique=21 | conformers_within_3kcal=21 | E_xtb_Eh=-42.49043365 | preopt_is_not_a_report_quantity=true | builder=build_structures.py+run_xtb_preopt.py+build_rotamers.py
Pb    -0.15513725     0.02525369    -0.03429617
O      1.30246836    -0.08309076     2.09051735
H      2.10648767    -0.52575614     1.79428356
H      0.96552041    -0.58008543     2.84302362
O      0.66830120     2.39535051     0.74536516
H      0.05251137     3.10771125     0.94475359
H      1.17581276     2.21837555     1.54595549
O     -2.13623398     0.08121000     1.63924075
H     -2.01516512     0.48729864     2.50340262
H     -2.32807338    -0.85275072     1.78689394
O     -0.82307165    -2.32647912     0.81757638
H     -0.10089748    -2.88457043     1.12403333
H     -1.19472517    -2.74818123     0.03385300
O      1.56087748     1.14971641    -1.66750008
H      1.82418044     1.92255923    -1.15350631
H      1.30004173     1.46531091    -2.53856624
O     -2.36058626     0.95937328    -1.11346006
H     -2.40338523     1.82147704    -1.53929431
H     -2.99188611     0.96377440    -0.38469385
O     -1.10222860    -1.49557240    -1.93037279
H     -0.65211866    -1.52816307    -2.78058705
H     -1.96476427    -1.09216099    -2.08496984
O      1.97737035    -1.40640054    -0.41540729
H      2.52315195    -0.83270050    -0.96639664
H      1.85492591    -2.22749451    -0.90281536
