32
charge=+0 | mult=1 | uhf=0 | uks=false | species=pb_P2_cplx | label=[Pb(L)(H2O)4]0 | formula=C8H14O9Pb1 | role=product | protonation=P2 | metal=Pb | config=6s2, closed shell | ligand_source=xtb-preoptimised ligand | preopt=GFN2-xTB/ALPB(water)/opt-tight | conformer_search=systematic torsion enumeration (2 torsions, 4 start geometries) + 12 seeded random water reorientations + GFN2-xTB/ALPB(water) opt-tight | conformers_unique=15 | conformers_within_3kcal=15 | E_xtb_Eh=-63.30705689 | preopt_is_not_a_report_quantity=true | builder=build_structures.py+run_xtb_preopt.py+build_rotamers.py
Pb    -5.54117242     0.43600476    -0.91019989
C      3.43156815    -0.52632609     0.96837905
O      2.23336378    -0.03018327     0.37623503
C      1.07635606    -0.57287079     0.80780662
O      1.07340805    -1.44601553     1.67001896
C     -0.10267944    -0.03000703     0.16087486
C     -1.35678851    -0.53078418     0.52933963
C     -2.52202948    -0.06163983    -0.05741955
O     -3.71519291    -0.53144191     0.27208950
C     -2.42263839     0.95335108    -1.04808049
O     -3.49580134     1.44634257    -1.64249149
C     -1.15443950     1.44340467    -1.40671110
O     -1.09387687     2.41889019    -2.37333821
C     -0.00581073     0.96546092    -0.81659916
H      3.41987842    -0.34699789     2.04499029
H      4.23876876     0.01843312     0.48868368
H      3.52024007    -1.59980301     0.79145274
H     -1.40694729    -1.30115355     1.28535943
H     -2.01753859     2.57481553    -2.64719310
H      0.95275714     1.35879168    -1.11187956
O     -5.70087885    -2.18110712    -1.06389678
H     -4.86244549    -2.36830176    -0.62448261
H     -6.40060938    -2.54405316    -0.50650697
O     -6.12485014     2.97901139    -0.45735728
H     -6.76051211     3.35068752    -1.08197701
H     -5.31537764     3.49575058    -0.52988685
O     -6.19733881     0.21409342     1.61384492
H     -5.36675420    -0.16078759     1.93188225
H     -6.32511457     1.05951871     2.06060756
O     -5.89242890    -0.18915334    -3.44571311
H     -5.14610435     0.09290397    -3.98593407
H     -5.95556230    -1.15010426    -3.51352382
