34
charge=+2 | mult=1 | uhf=0 | uks=false | species=pb_P0_cplx | label=[Pb(LH2)(H2O)4]2+ | formula=C8H16O9Pb1 | role=product | protonation=P0 | metal=Pb | config=6s2, closed shell | ligand_source=xtb-preoptimised ligand | preopt=GFN2-xTB/ALPB(water)/opt-tight | conformer_search=systematic torsion enumeration (2 torsions, 4 start geometries) + 12 seeded random water reorientations + GFN2-xTB/ALPB(water) opt-tight | conformers_unique=11 | conformers_within_3kcal=2 | E_xtb_Eh=-63.68344155 | preopt_is_not_a_report_quantity=true | builder=build_structures.py+run_xtb_preopt.py+build_rotamers.py
Pb    -5.42986399     0.30662520    -0.87801178
C      2.52927184    -3.00906616     1.65024607
O      1.39292744    -2.29922938     1.16369053
C      1.61338656    -1.12647332     0.56775693
O      2.72717667    -0.65258263     0.42918721
C      0.37411952    -0.47870072     0.09892752
C     -0.86968644    -1.07055602     0.29728896
C     -2.01672389    -0.43816371    -0.15520601
O     -3.25601040    -0.98014722     0.01444032
C     -1.92001480     0.79257501    -0.80767171
O     -3.03905407     1.42435755    -1.25717930
C     -0.66290800     1.38216198    -1.00620342
O     -0.67492306     2.57349310    -1.65480184
C      0.47858328     0.74814167    -0.55334944
H      3.22393454    -3.21416890     0.83444865
H      2.14370965    -3.93161811     2.07245275
H      3.04562067    -2.41954422     2.40913532
H     -0.92127234    -2.01983052     0.80372286
H     -3.19156816    -1.82460310     0.48923893
H     -2.76718007     2.25374716    -1.69250022
H      0.21644056     2.92834539    -1.77011257
H      1.45818646     1.17822596    -0.69158708
O     -7.00641499    -1.56706222    -0.95240512
H     -7.78437209    -1.44847577    -1.51141092
H     -6.69317266    -2.47146826    -1.07656050
O     -6.86159831     2.26740317    -1.21851575
H     -6.52904349     3.15592923    -1.04125061
H     -7.76404728     2.21956426    -0.87908064
O     -6.35574509     0.48144694     1.42484554
H     -6.92255626    -0.22605983     1.75403415
H     -5.83678536     0.82434756     2.16137102
O     -5.78075520     0.09846434    -3.33042078
H     -6.16705293     0.85233240    -3.79146942
H     -5.11494857    -0.29936404    -3.90302326
