33
charge=+1 | mult=1 | uhf=0 | uks=false | species=pb_P1_cplx | label=[Pb(LH)(H2O)4]1+ | formula=C8H15O9Pb1 | role=product | protonation=P1 | metal=Pb | config=6s2, closed shell | ligand_source=xtb-preoptimised ligand | preopt=GFN2-xTB/ALPB(water)/opt-tight | conformer_search=systematic torsion enumeration (2 torsions, 4 start geometries) + 12 seeded random water reorientations + GFN2-xTB/ALPB(water) opt-tight | conformers_unique=12 | conformers_within_3kcal=12 | E_xtb_Eh=-63.49989763 | preopt_is_not_a_report_quantity=true | builder=build_structures.py+run_xtb_preopt.py+build_rotamers.py
Pb    -5.40909736     0.11222218    -0.55519769
C      3.92312018    -0.55373747     0.51826810
O      2.63441340    -0.09246807     0.12218754
C      1.57843851    -0.80149796     0.54965616
O      1.70854176    -1.79776401     1.24880002
C      0.29820908    -0.26663566     0.10091471
C     -0.87072378    -0.92869993     0.48489042
C     -2.10104297    -0.45936231     0.08312155
O     -3.28009969    -1.07815557     0.44354388
C     -2.21089353     0.69162916    -0.72130436
O     -3.35018523     1.18321035    -1.13962504
C     -1.01113279     1.34849408    -1.09598863
O     -1.12251348     2.46287879    -1.87020865
C      0.21824528     0.88073646    -0.69503731
H      3.99584279    -0.57731284     1.60686726
H      4.63023351     0.15333404     0.09579125
H      4.09742091    -1.55918212     0.13146952
H     -0.77443517    -1.81072937     1.10011566
H     -3.09809904    -1.85759425     0.99043662
H     -2.07987650     2.59953203    -2.01624791
H      1.11168961     1.40108949    -0.99695607
O     -6.70629268    -2.15188082    -0.47997092
H     -6.43107837    -2.82585164    -1.11104911
H     -7.66843716    -2.09343128    -0.52162374
O     -6.79734750     2.10360610    -1.14393016
H     -6.29662941     2.91794243    -1.27202699
H     -7.52008364     2.29513387    -0.53232579
O     -6.03219166     1.06698304     1.75187838
H     -6.43298682     0.45285184     2.37895754
H     -5.35429882     1.56634711     2.22047654
O     -5.77241965    -0.21543378    -3.03459025
H     -6.48651423     0.31666139    -3.40918653
H     -4.98195686    -0.05823142    -3.56218056
