3
charge=+0 | mult=1 | uhf=0 | uks=false | species=water | label=H2O | formula=H2O1 | role=product | protonation=n-a | metal=none | preopt=GFN2-xTB/ALPB(water)/opt-tight | conformer_search=systematic torsion enumeration (0 torsions, 1 start geometries) + GFN2-xTB/ALPB(water) opt-tight | conformers_unique=1 | conformers_within_3kcal=1 | E_xtb_Eh=-5.08502109 | preopt_is_not_a_report_quantity=true | builder=build_structures.py+run_xtb_preopt.py+build_rotamers.py
O      0.00000000     0.00000000     0.01034458
H      0.00000000     0.77455257     0.58133186
H      0.00000000    -0.77455257     0.58133186
