33
charge=+1 | mult=1 | uhf=0 | uks=false | species=zn_P1_cplx | label=[Zn(LH)(H2O)4]1+ | formula=C8H15O9Zn1 | role=product | protonation=P1 | metal=Zn | config=d10, closed shell | ligand_source=xtb-preoptimised ligand | preopt=GFN2-xTB/ALPB(water)/opt-tight | conformer_search=systematic torsion enumeration (2 torsions, 4 start geometries) + 12 seeded random water reorientations + GFN2-xTB/ALPB(water) opt-tight | conformers_unique=9 | conformers_within_3kcal=9 | E_xtb_Eh=-61.76648637 | preopt_is_not_a_report_quantity=true | builder=build_structures.py+run_xtb_preopt.py+build_rotamers.py
Zn    -4.79318951     0.31714847    -0.74175738
C      3.86520847    -0.73306301     0.73020816
O      2.60072744    -0.15246121     0.42449840
C      1.54380754    -0.97861328     0.40454209
O      1.65347818    -2.17578516     0.63321092
C      0.28564446    -0.30928763     0.09098406
C     -0.88134207    -1.07738151     0.05454864
C     -2.08557838    -0.47685646    -0.23082642
O     -3.27964717    -1.15679323    -0.28508814
C     -2.17119578     0.90103288    -0.48804486
O     -3.31522624     1.48387343    -0.75604420
C     -0.97951825     1.66125012    -0.45197805
O     -1.06130428     2.99648731    -0.70567522
C      0.22814486     1.06438922    -0.16570922
H      3.84626584    -1.16826543     1.73087479
H      4.58324508     0.07910606     0.67339155
H      4.10337506    -1.51711198     0.00941689
H     -0.80195138    -2.13478592     0.25575170
H     -3.13295871    -2.09458532    -0.09377767
H     -2.00105685     3.19184243    -0.88394475
H      1.12415258     1.66184129    -0.14114687
O     -6.13060362    -1.17043121    -0.65173335
H     -6.11376345    -1.76548553     0.10765801
H     -7.06228119    -1.01918840    -0.85821079
O     -6.22150405     1.69498225    -1.15721693
H     -6.64063842     1.66554477    -2.02882164
H     -5.94698512     2.61224148    -1.02654476
O     -5.14636410     0.56416741     1.28459182
H     -4.46856377     0.98836310     1.82248586
H     -5.99866302     0.87992090     1.61749793
O     -4.67575632    -0.10700375    -2.74573926
H     -4.87959643    -0.97879479    -3.11003422
H     -3.98869716     0.28262972    -3.29878894
