32
charge=+0 | mult=1 | uhf=0 | uks=false | species=zn_P2_cplx | label=[Zn(L)(H2O)4]0 | formula=C8H14O9Zn1 | role=product | protonation=P2 | metal=Zn | config=d10, closed shell | ligand_source=xtb-preoptimised ligand | preopt=GFN2-xTB/ALPB(water)/opt-tight | conformer_search=systematic torsion enumeration (2 torsions, 4 start geometries) + 12 seeded random water reorientations + GFN2-xTB/ALPB(water) opt-tight | conformers_unique=11 | conformers_within_3kcal=10 | E_xtb_Eh=-61.57462753 | preopt_is_not_a_report_quantity=true | builder=build_structures.py+run_xtb_preopt.py+build_rotamers.py
Zn    -4.63596826     0.24552518    -0.68024092
C      3.85647601    -0.88315277     0.56470782
O      2.61225691    -0.24483006     0.28934064
C      1.51117947    -1.02520048     0.32470331
O      1.59746446    -2.22175421     0.58366518
C      0.28077739    -0.31600980     0.03381427
C     -0.92151172    -1.03554440     0.03449490
C     -2.12629229    -0.41013102    -0.24005490
O     -3.28715593    -1.04028531    -0.25192497
C     -2.12204394     0.98132896    -0.52300954
O     -3.25539368     1.60268363    -0.79166467
C     -0.91116329     1.68963995    -0.51675158
O     -0.94924868     3.03647735    -0.79249517
C      0.28091940     1.05551605    -0.24319268
H      3.84409889    -1.31135969     1.56861038
H      4.60710337    -0.10350277     0.48025684
H      4.03535914    -1.68258764    -0.15660256
H     -0.89776879    -2.09356402     0.25200535
H     -1.88966509     3.24810702    -0.94278520
H      1.20044853     1.61726990    -0.24401712
O     -6.12270899    -1.24742947    -0.59699134
H     -5.67443793    -2.05992210    -0.33165025
H     -6.82603898    -1.10514194     0.05095726
O     -6.16683453     1.61439277    -1.12020669
H     -6.78279529     1.34411363    -1.81467170
H     -5.79997883     2.46207669    -1.39955848
O     -5.22362193     0.61578092     1.37338962
H     -4.62257815     0.33628674     2.07296232
H     -5.56138850     1.48808101     1.61631934
O     -4.69941084    -0.09909721    -2.82513690
H     -3.94020229     0.19315646    -3.34157194
H     -4.92237453    -0.98839282    -3.12905443
