34
charge=+2 | mult=1 | uhf=0 | uks=false | species=zn_P0_cplx | label=[Zn(LH2)(H2O)4]2+ | formula=C8H16O9Zn1 | role=product | protonation=P0 | metal=Zn | config=d10, closed shell | ligand_source=xtb-preoptimised ligand | preopt=GFN2-xTB/ALPB(water)/opt-tight | conformer_search=systematic torsion enumeration (2 torsions, 4 start geometries) + 12 seeded random water reorientations + GFN2-xTB/ALPB(water) opt-tight | conformers_unique=9 | conformers_within_3kcal=4 | E_xtb_Eh=-61.94823246 | preopt_is_not_a_report_quantity=true | builder=build_structures.py+run_xtb_preopt.py+build_rotamers.py
Zn    -4.95284978     0.14345559    -0.80686257
C      2.63302203    -3.05571076     0.72263850
O      1.42519232    -2.33618345     0.49201776
C      1.50301166    -1.00481210     0.45697456
O      2.54699648    -0.39664915     0.61366539
C      0.19966033    -0.36070190     0.20580868
C     -0.96106878    -1.11571162     0.05803174
C     -2.16117887    -0.46930677    -0.18341949
O     -3.34638211    -1.12400801    -0.34224393
C     -2.20418221     0.91911880    -0.27911050
O     -3.39936041     1.52235489    -0.52412137
C     -1.03605512     1.67595754    -0.12383261
O     -1.18924878     3.01741357    -0.22815628
C      0.16321472     1.03028292     0.11801360
H      3.33359108    -2.88827540    -0.09694285
H      2.34950639    -4.10194804     0.78082023
H      3.09845062    -2.72537405     1.65256030
H     -0.90382266    -2.18819800     0.13400517
H     -3.22474415    -2.08093395    -0.23982473
H     -3.24966772     2.48415691    -0.54912589
H     -0.35467786     3.48848603    -0.10937195
H      1.08470387     1.57777020     0.24148614
O     -6.15922032    -1.35041549    -0.99146668
H     -6.32688462    -1.85852553    -1.79503510
H     -6.69434382    -1.73642261    -0.28642829
O     -6.26309410     1.51305565    -1.23045084
H     -6.16465241     2.47268761    -1.24913165
H     -7.17915027     1.31733148    -1.46762988
O     -5.35179531     0.27354133     1.10814777
H     -5.98773795     0.89227306     1.49068354
H     -4.79117327    -0.03366327     1.82989164
O     -4.42314045     0.00214993    -2.69303794
H     -4.74096206     0.58151538    -3.39759144
H     -3.68396060    -0.50104741    -3.05319946
