19
Coordinates from ORCA-job zn_aquo6 E -2237.294368949505
  Zn      0.001436      0.004603      0.011684
  O       1.989785     -0.003612      0.020078
  H       2.553815     -0.784828      0.041374
  H       2.565566      0.769196      0.034531
  O      -1.987250      0.013536      0.003256
  H      -2.562325     -0.759820     -0.009124
  H      -2.552129      0.794134     -0.018957
  O       0.007811      1.993510      0.004447
  H       0.005528      2.567222      0.778894
  H       0.031628      2.560135     -0.774804
  O      -0.004953     -1.983906      0.018637
  H      -0.028386     -2.550540      0.797924
  H      -0.004502     -2.557396     -0.755961
  O      -0.010966      0.010504      2.000168
  H      -0.794160      0.023605      2.561734
  H       0.759716      0.014209      2.578929
  O       0.013529     -0.002598     -1.976906
  H      -0.757595      0.004416     -2.555275
  H       0.796148     -0.012948     -2.539064
19
Coordinates from ORCA-job zn_aquo6 E -2237.297995064691
  Zn      0.001431      0.004579      0.011680
  O       2.007007     -0.003688      0.019931
  H       2.569443     -0.784112      0.042059
  H       2.580938      0.768495      0.035271
  O      -2.004458      0.013460      0.003383
  H      -2.577700     -0.759279     -0.009902
  H      -2.567703      0.793272     -0.019579
  O       0.007719      2.010685      0.004402
  H       0.006378      2.582650      0.778200
  H       0.031577      2.575618     -0.774161
  O      -0.004888     -2.001138      0.018692
  H      -0.028412     -2.566076      0.797255
  H      -0.005433     -2.572909     -0.755244
  O      -0.010973      0.010466      2.017379
  H      -0.793318      0.023782      2.577414
  H       0.759177      0.014699      2.594233
  O       0.013490     -0.002620     -1.994122
  H      -0.756993      0.004192     -2.570500
  H       0.795412     -0.012651     -2.554827
19
Coordinates from ORCA-job zn_aquo6 E -2237.304146416394
  Zn      0.001447      0.004533      0.011670
  O       2.064169     -0.004073      0.019506
  H       2.623393     -0.786397      0.043960
  H       2.634180      0.770611      0.037284
  O      -2.061502      0.013357      0.003713
  H      -2.630869     -0.761849     -0.012024
  H      -2.621431      0.795150     -0.021418
  O       0.007491      2.067682      0.004192
  H       0.008374      2.636038      0.780293
  H       0.031842      2.629072     -0.776570
  O      -0.004647     -2.058261      0.018928
  H      -0.028791     -2.619705      0.799654
  H      -0.007544     -2.626483     -0.757264
  O      -0.011197      0.010338      2.074475
  H      -0.795305      0.024368      2.631549
  H       0.761672      0.015909      2.647192
  O       0.013622     -0.002669     -2.051212
  H      -0.759570      0.003814     -2.623473
  H       0.797363     -0.012010     -2.608892
19
Coordinates from ORCA-job zn_aquo6 E -2237.304524639108
  Zn      0.001459      0.004425      0.011660
  O       2.080296     -0.003965      0.018711
  H       2.638547     -0.786823      0.045919
  H       2.648776      0.771709      0.039337
  O      -2.077573      0.012890      0.004449
  H      -2.645453     -0.763278     -0.014090
  H      -2.636484      0.795255     -0.023264
  O       0.007031      2.083639      0.004230
  H       0.010236      2.650745      0.781176
  H       0.032275      2.643870     -0.777268
  O      -0.004152     -2.074460      0.018896
  H      -0.029327     -2.634750      0.800354
  H      -0.009516     -2.641441     -0.758129
  O      -0.010724      0.010014      2.090565
  H      -0.795267      0.024981      2.646900
  H       0.763281      0.017098      2.661641
  O       0.013134     -0.002664     -2.067311
  H      -0.761187      0.003570     -2.637964
  H       0.797341     -0.011390     -2.624249
19
Coordinates from ORCA-job zn_aquo6 E -2237.304536619904
  Zn      0.001470      0.004276      0.011649
  O       2.083784     -0.003652      0.017671
  H       2.641858     -0.786496      0.048171
  H       2.651529      0.772443      0.041679
  O      -2.081026      0.012221      0.005442
  H      -2.648211     -0.764347     -0.016408
  H      -2.639737      0.794594     -0.025378
  O       0.006420      2.086941      0.004371
  H       0.012254      2.653601      0.781604
  H       0.032874      2.646861     -0.777289
  O      -0.003493     -2.078073      0.018749
  H      -0.030038     -2.638039      0.800372
  H      -0.011652     -2.644605     -0.758555
  O      -0.009906      0.009575      2.094027
  H      -0.794340      0.025706      2.650454
  H       0.764655      0.018446      2.664290
  O       0.012334     -0.002652     -2.070788
  H      -0.762533      0.003357     -2.640668
  H       0.796453     -0.010735     -2.627828
19
Coordinates from ORCA-job zn_aquo6 E -2237.304551313277
  Zn      0.001487      0.004051      0.011630
  O       2.085057     -0.003122      0.016056
  H       2.643128     -0.785751      0.051569
  H       2.651997      0.773373      0.045212
  O      -2.082249      0.011176      0.007001
  H      -2.648682     -0.765774     -0.019859
  H      -2.640940      0.793355     -0.028561
  O       0.005470      2.087944      0.004608
  H       0.015198      2.654239      0.782055
  H       0.033849      2.647706     -0.777087
  O      -0.002471     -2.079538      0.018495
  H      -0.031202     -2.639322      0.800159
  H      -0.014780     -2.645692     -0.759017
  O      -0.008586      0.008886      2.095256
  H      -0.792671      0.026805      2.652104
  H       0.766575      0.020450      2.664635
  O       0.011058     -0.002636     -2.072047
  H      -0.764396      0.003076     -2.641106
  H       0.794854     -0.009802     -2.629540
19
Coordinates from ORCA-job zn_aquo6 E -2237.304799205863
  Zn      0.001854      0.000370      0.011416
  O       2.101776      0.005671     -0.010609
  H       2.656003     -0.771611      0.106786
  H       2.651878      0.786315      0.103270
  O      -2.098015     -0.006029      0.032881
  H      -2.648798     -0.786876     -0.076283
  H      -2.652944      0.771375     -0.080216
  O      -0.010145      2.100350      0.008968
  H       0.062869      2.659746      0.787867
  H       0.049992      2.656612     -0.773276
  O       0.014473     -2.099464      0.013965
  H      -0.050283     -2.655136      0.796247
  H      -0.065269     -2.658247     -0.764698
  O       0.013292     -0.002712      2.111376
  H      -0.764853      0.044279      2.674601
  H       0.797047      0.052715      2.665887
  O      -0.009892     -0.002200     -2.088480
  H      -0.794517     -0.001149     -2.644492
  H       0.768227      0.005416     -2.653647
19
Coordinates from ORCA-job zn_aquo6 E -2237.305212798346
  Zn      0.002203     -0.002157      0.011337
  O       2.110012      0.011832     -0.028853
  H       2.657024     -0.760601      0.143582
  H       2.644106      0.793233      0.143041
  O      -2.105413     -0.017851      0.050802
  H      -2.641430     -0.799330     -0.114583
  H      -2.653535      0.755265     -0.114605
  O      -0.020828      2.105729      0.012483
  H       0.094600      2.659165      0.790498
  H       0.061216      2.658493     -0.770261
  O       0.026264     -2.109970      0.010566
  H      -0.063412     -2.661361      0.793459
  H      -0.098825     -2.662215     -0.766818
  O       0.028464     -0.010936      2.119249
  H      -0.745542      0.055582      2.686157
  H       0.816902      0.074397      2.663144
  O      -0.024182     -0.001798     -2.096462
  H      -0.814588     -0.003662     -2.644029
  H       0.749662      0.015609     -2.667144
19
Coordinates from ORCA-job zn_aquo6 E -2237.305690722514
  Zn      0.002492     -0.003940      0.011368
  O       2.113283      0.016229     -0.041208
  H       2.652850     -0.752991      0.167489
  H       2.633886      0.797720      0.169543
  O      -2.108018     -0.026170      0.063107
  H      -2.631547     -0.807653     -0.140122
  H      -2.649139      0.744091     -0.137146
  O      -0.028400      2.107055      0.015269
  H       0.115890      2.655622      0.792047
  H       0.069593      2.656811     -0.767884
  O       0.034689     -2.114873      0.008108
  H      -0.073084     -2.662469      0.791540
  H      -0.121318     -2.661681     -0.767697
  O       0.038701     -0.016889      2.122340
  H      -0.732527      0.063303      2.691340
  H       0.829682      0.089605      2.658837
  O      -0.033680     -0.001555     -2.099461
  H      -0.827647     -0.005205     -2.641760
  H       0.736991      0.022415     -2.674148
19
Coordinates from ORCA-job zn_aquo6 E -2237.306139597398
  Zn      0.002715     -0.005216      0.011473
  O       2.113678      0.019384     -0.049486
  H       2.646779     -0.748066      0.182550
  H       2.623598      0.801064      0.186654
  O      -2.107910     -0.032077      0.071488
  H      -2.621457     -0.813664     -0.156735
  H      -2.642904      0.736576     -0.151576
  O      -0.033927      2.106101      0.017447
  H       0.130168      2.650773      0.793186
  H       0.076130      2.653393     -0.765969
  O       0.040840     -2.116444      0.006378
  H      -0.080516     -2.660856      0.790208
  H      -0.136382     -2.658848     -0.768138
  O       0.045393     -0.021307      2.122681
  H      -0.724021      0.068826      2.692762
  H       0.837665      0.100487      2.654122
  O      -0.039807     -0.001474     -2.099567
  H      -0.835885     -0.006175     -2.638747
  H       0.728540      0.026948     -2.677169
19
Coordinates from ORCA-job zn_aquo6 E -2237.306638143676
  Zn      0.002956     -0.006549      0.011636
  O       2.114085      0.022669     -0.057741
  H       2.639942     -0.742780      0.197179
  H       2.612429      0.804094      0.203452
  O      -2.107782     -0.038216      0.079925
  H      -2.610437     -0.819482     -0.173112
  H      -2.635858      0.728599     -0.165685
  O      -0.039729      2.105116      0.019814
  H       0.144536      2.645390      0.794211
  H       0.083186      2.649494     -0.763830
  O       0.047296     -2.118084      0.004566
  H      -0.088444     -2.658775      0.788738
  H      -0.151493     -2.655488     -0.768326
  O       0.052020     -0.025989      2.123093
  H      -0.715630      0.074613      2.693891
  H       0.845288      0.111723      2.649237
  O      -0.045844     -0.001396     -2.099624
  H      -0.843977     -0.007080     -2.635740
  H       0.720152      0.031564     -2.680120
19
Coordinates from ORCA-job zn_aquo6 E -2237.307155409221
  Zn      0.003216     -0.007955      0.011866
  O       2.114511      0.026109     -0.065908
  H       2.632477     -0.737277      0.211271
  H       2.600497      0.806992      0.219872
  O      -2.107635     -0.044653      0.088369
  H      -2.598556     -0.825315     -0.189207
  H      -2.628098      0.720237     -0.179386
  O      -0.045851      2.104074      0.022400
  H       0.159082      2.639384      0.795183
  H       0.090845      2.645021     -0.761466
  O       0.054095     -2.119802      0.002661
  H      -0.096929     -2.656170      0.787156
  H      -0.166739     -2.651542     -0.768311
  O       0.058554     -0.030978      2.123578
  H      -0.707434      0.080770      2.694639
  H       0.852498      0.123434      2.644161
  O      -0.051776     -0.001312     -2.099618
  H      -0.851907     -0.007915     -2.632731
  H       0.711845      0.036320     -2.682967
19
Coordinates from ORCA-job zn_aquo6 E -2237.307696071898
  Zn      0.003492     -0.009456      0.012182
  O       2.114953      0.029729     -0.073891
  H       2.624501     -0.731591      0.224655
  H       2.587914      0.809812      0.235769
  O      -2.107475     -0.051463      0.096739
  H      -2.585884     -0.831257     -0.204918
  H      -2.619708      0.711462     -0.192535
  O      -0.052350      2.102937      0.025250
  H       0.173903      2.632610      0.796121
  H       0.099192      2.639837     -0.758826
  O       0.061288     -2.121609      0.000650
  H      -0.106035     -2.652951      0.785436
  H      -0.182196     -2.646903     -0.768090
  O       0.064940     -0.036318      2.124148
  H      -0.699524      0.087417      2.694903
  H       0.859182      0.135766      2.638856
  O      -0.057560     -0.001216     -2.099519
  H      -0.859621     -0.008667     -2.629714
  H       0.703682      0.041284     -2.685652
19
Coordinates from ORCA-job zn_aquo6 E -2237.308249413181
  Zn      0.003737     -0.011112      0.012452
  O       2.115344      0.033498     -0.081398
  H       2.615931     -0.725963      0.237259
  H       2.574442      0.812295      0.252294
  O      -2.107342     -0.058740      0.104928
  H      -2.572712     -0.837389     -0.220024
  H      -2.610957      0.702351     -0.204521
  O      -0.059315      2.101625      0.028273
  H       0.188904      2.624892      0.796937
  H       0.108131      2.633787     -0.755984
  O       0.068859     -2.123544     -0.001622
  H      -0.115708     -2.649095      0.783411
  H      -0.197832     -2.641528     -0.767818
  O       0.071421     -0.041914      2.124620
  H      -0.691584      0.094829      2.694510
  H       0.865653      0.149245      2.632790
  O      -0.063098     -0.001071     -2.099446
  H      -0.866984     -0.009317     -2.626866
  H       0.695804      0.046576     -2.688233
19
Coordinates from ORCA-job zn_aquo6 E -2237.308805039259
  Zn      0.004064     -0.012892      0.012888
  O       2.115810      0.037523     -0.088387
  H       2.607365     -0.720372      0.248439
  H       2.560808      0.814781      0.268067
  O      -2.107095     -0.066685      0.112687
  H      -2.558796     -0.843968     -0.234893
  H      -2.601888      0.692700     -0.215505
  O      -0.066778      2.100134      0.031713
  H       0.204261      2.616101      0.797806
  H       0.117719      2.626757     -0.752676
  O       0.076822     -2.125532     -0.003995
  H      -0.126127     -2.644351      0.781224
  H      -0.214342     -2.635029     -0.767204
  O       0.077683     -0.047932      2.125218
  H      -0.684077      0.103037      2.693359
  H       0.871329      0.163784      2.626341
  O      -0.068332     -0.000901     -2.099147
  H      -0.873970     -0.009961     -2.623893
  H       0.688240      0.052229     -2.690478
19
Coordinates from ORCA-job zn_aquo6 E -2237.309372457191
  Zn      0.004428     -0.014848      0.013662
  O       2.116257      0.042008     -0.094597
  H       2.599278     -0.714624      0.257890
  H       2.547166      0.817797      0.282615
  O      -2.106751     -0.075328      0.119615
  H      -2.544085     -0.851107     -0.249857
  H      -2.592371      0.682408     -0.226479
  O      -0.074474      2.098354      0.035749
  H       0.221152      2.605769      0.798708
  H       0.128060      2.618452     -0.748798
  O       0.085143     -2.127592     -0.006304
  H      -0.136807     -2.638694      0.779120
  H      -0.231733     -2.627352     -0.765985
  O       0.083428     -0.054426      2.126099
  H      -0.677396      0.112013      2.691384
  H       0.875812      0.179234      2.619684
  O      -0.073664     -0.000645     -2.098369
  H      -0.881186     -0.010313     -2.620261
  H       0.680439      0.058317     -2.692313
19
Coordinates from ORCA-job zn_aquo6 E -2237.310325745294
  Zn      0.005109     -0.016175      0.015257
  O       2.101916      0.045807     -0.097573
  H       2.570177     -0.720540      0.257369
  H       2.512983      0.829695      0.288679
  O      -2.091006     -0.081863      0.123003
  H      -2.506981     -0.865307     -0.258439
  H      -2.560367      0.684252     -0.230666
  O      -0.082635      2.081978      0.039962
  H       0.232886      2.577369      0.804086
  H       0.137713      2.592625     -0.747197
  O       0.093982     -2.113408     -0.006878
  H      -0.146578     -2.612736      0.781979
  H      -0.244106     -2.598629     -0.768214
  O       0.086313     -0.061878      2.112110
  H      -0.676076      0.118952      2.671984
  H       0.877343      0.191594      2.599576
  O      -0.076871     -0.001889     -2.080663
  H      -0.884339     -0.011608     -2.603291
  H       0.673233      0.061185     -2.679521
19
Coordinates from ORCA-job zn_aquo6 E -2237.310920018838
  Zn      0.005582     -0.018050      0.016449
  O       2.098771      0.050668     -0.103542
  H       2.554953     -0.714316      0.266196
  H       2.492404      0.831751      0.302623
  O      -2.087017     -0.090318      0.129419
  H      -2.484866     -0.871406     -0.272627
  H      -2.543339      0.674394     -0.240808
  O      -0.091631      2.076435      0.044582
  H       0.249557      2.559395      0.805191
  H       0.148766      2.577085     -0.742703
  O       0.103805     -2.111406     -0.008882
  H      -0.157106     -2.599248      0.780127
  H      -0.260266     -2.582497     -0.766528
  O       0.092068     -0.070205      2.109363
  H      -0.669825      0.128432      2.663650
  H       0.880616      0.206836      2.587526
  O      -0.082501     -0.002367     -2.075195
  H      -0.891534     -0.012070     -2.595437
  H       0.664257      0.066312     -2.677840
19
Coordinates from ORCA-job zn_aquo6 E -2237.311621606518
  Zn      0.006026     -0.021626      0.018086
  O       2.100244      0.058291     -0.111544
  H       2.544708     -0.705175      0.277773
  H       2.473733      0.835496      0.322722
  O      -2.087711     -0.105017      0.138769
  H      -2.464114     -0.882232     -0.292747
  H      -2.530538      0.657464     -0.254221
  O      -0.104740      2.073696      0.052482
  H       0.276189      2.538513      0.806173
  H       0.167731      2.560208     -0.733846
  O       0.118011     -2.115776     -0.012838
  H      -0.174714     -2.587970      0.775245
  H      -0.285297     -2.567493     -0.763109
  O       0.099987     -0.081918      2.111814
  H      -0.660920      0.145866      2.656663
  H       0.883216      0.234506      2.574736
  O      -0.090099     -0.002037     -2.074143
  H      -0.901834     -0.011445     -2.590173
  H       0.652816      0.076071     -2.680281
19
Coordinates from ORCA-job zn_aquo6 E -2237.312259575578
  Zn      0.006822     -0.027068      0.021943
  O       2.094907      0.068134     -0.123983
  H       2.514196     -0.692220      0.295223
  H       2.435463      0.834306      0.352368
  O      -2.081748     -0.124148      0.151390
  H      -2.423007     -0.892980     -0.320360
  H      -2.497073      0.636200     -0.272005
  O      -0.126076      2.060912      0.067201
  H       0.312173      2.486501      0.813424
  H       0.196018      2.516665     -0.719182
  O       0.142289     -2.113556     -0.017366
  H      -0.194044     -2.554883      0.771391
  H      -0.310800     -2.526665     -0.761696
  O       0.111931     -0.104900      2.107412
  H      -0.650266      0.177634      2.624981
  H       0.882992      0.280665      2.537990
  O      -0.103437     -0.003979     -2.060641
  H      -0.918716     -0.009363     -2.571233
  H       0.631072      0.088168     -2.675295
19
Coordinates from ORCA-job zn_aquo6 E -2237.311850179979
  Zn      0.007262     -0.037207      0.026662
  O       2.109941      0.081853     -0.122322
  H       2.534518     -0.691930      0.275029
  H       2.437369      0.854426      0.360657
  O      -2.095201     -0.160321      0.160355
  H      -2.415205     -0.929159     -0.332925
  H      -2.507259      0.604260     -0.266560
  O      -0.146042      2.065598      0.084175
  H       0.354499      2.461623      0.809049
  H       0.240176      2.496725     -0.689083
  O       0.162088     -2.139039     -0.025122
  H      -0.240127     -2.553592      0.749426
  H      -0.356776     -2.520608     -0.745292
  O       0.114532     -0.119097      2.129335
  H      -0.644009      0.222619      2.617847
  H       0.860282      0.346421      2.527193
  O      -0.103522      0.001417     -2.073590
  H      -0.921755     -0.000158     -2.580001
  H       0.631924      0.115592     -2.683269
19
Coordinates from ORCA-job zn_aquo6 E -2237.312586264538
  Zn      0.006857     -0.033652      0.025171
  O       2.102467      0.072125     -0.124119
  H       2.523381     -0.693534      0.286762
  H       2.440055      0.836424      0.360091
  O      -2.089472     -0.141466      0.155527
  H      -2.424871     -0.908190     -0.326532
  H      -2.503859      0.620849     -0.268313
  O      -0.135544      2.061686      0.077744
  H       0.330748      2.468331      0.819123
  H       0.217495      2.502243     -0.705506
  O       0.152332     -2.127689     -0.020597
  H      -0.209803     -2.556476      0.765152
  H      -0.323469     -2.524596     -0.761280
  O       0.113560     -0.115579      2.118618
  H      -0.649193      0.211639      2.610630
  H       0.870985      0.324260      2.523505
  O      -0.105262     -0.002895     -2.064566
  H      -0.922369      0.001790     -2.572407
  H       0.628655      0.104155     -2.677440
19
Coordinates from ORCA-job zn_aquo6 E -2237.312706761135
  Zn      0.006982     -0.035160      0.026079
  O       2.102885      0.070059     -0.122714
  H       2.527141     -0.696607      0.282226
  H       2.447535      0.833451      0.357401
  O      -2.090097     -0.141643      0.153076
  H      -2.432483     -0.909222     -0.322011
  H      -2.508358      0.622002     -0.263794
  O      -0.134853      2.060290      0.078606
  H       0.326328      2.464094      0.824379
  H       0.218559      2.498020     -0.705704
  O       0.152613     -2.129156     -0.018611
  H      -0.208641     -2.557294      0.767296
  H      -0.315116     -2.525257     -0.764204
  O       0.112079     -0.116801      2.119466
  H      -0.654237      0.218994      2.600545
  H       0.868960      0.331543      2.516559
  O      -0.104451     -0.005174     -2.062366
  H      -0.921471      0.009870     -2.570182
  H       0.629323      0.107414     -2.674482
19
Coordinates from ORCA-job zn_aquo6 E -2237.312954653802
  Zn      0.007047     -0.042229      0.030421
  O       2.107551      0.066288     -0.119074
  H       2.542606     -0.704071      0.266380
  H       2.471642      0.826438      0.351133
  O      -2.096040     -0.149770      0.148235
  H      -2.454656     -0.917265     -0.313839
  H      -2.523618      0.615985     -0.254041
  O      -0.137043      2.057745      0.084083
  H       0.323316      2.446292      0.838104
  H       0.231548      2.479672     -0.701553
  O       0.157404     -2.140101     -0.011523
  H      -0.213055     -2.561338      0.773398
  H      -0.297195     -2.529019     -0.768493
  O       0.108642     -0.121957      2.128328
  H      -0.668886      0.248491      2.565083
  H       0.859414      0.366039      2.490137
  O      -0.103777     -0.013490     -2.057884
  H      -0.921256      0.043560     -2.562116
  H       0.629052      0.128151     -2.665215
19
Coordinates from ORCA-job zn_aquo6 E -2237.313049646121
  Zn      0.007273     -0.046952      0.032331
  O       2.110115      0.065450     -0.117035
  H       2.551840     -0.707545      0.255363
  H       2.483127      0.825999      0.345427
  O      -2.098776     -0.157298      0.145155
  H      -2.464073     -0.926447     -0.309023
  H      -2.531546      0.609610     -0.249570
  O      -0.139529      2.055961      0.084764
  H       0.324884      2.436915      0.840205
  H       0.242504      2.467612     -0.699916
  O       0.161362     -2.147079     -0.005925
  H      -0.221747     -2.562138      0.776140
  H      -0.292761     -2.531639     -0.765352
  O       0.106366     -0.122121      2.133730
  H      -0.677695      0.260836      2.547497
  H       0.854255      0.383028      2.477778
  O      -0.102551     -0.021140     -2.056335
  H      -0.920026      0.069406     -2.555897
  H       0.629672      0.146963     -2.657773
19
Coordinates from ORCA-job zn_aquo6 E -2237.313223357407
  Zn      0.007777     -0.056334      0.034080
  O       2.113756      0.062884     -0.116300
  H       2.564158     -0.712757      0.240172
  H       2.497642      0.823823      0.336648
  O      -2.102312     -0.171784      0.141057
  H      -2.474901     -0.943204     -0.303615
  H      -2.541001      0.595035     -0.247842
  O      -0.143677      2.051742      0.081712
  H       0.329685      2.422749      0.836972
  H       0.260472      2.445798     -0.701339
  O       0.167980     -2.159910      0.005118
  H      -0.237384     -2.563708      0.782313
  H      -0.288364     -2.538843     -0.756312
  O       0.103611     -0.120082      2.141884
  H      -0.689845      0.278682      2.520839
  H       0.846086      0.409725      2.459072
  O      -0.101550     -0.039688     -2.055015
  H      -0.917498      0.124972     -2.538572
  H       0.628058      0.190322     -2.639310
19
Coordinates from ORCA-job zn_aquo6 E -2237.313498518744
  Zn      0.008417     -0.068981      0.032768
  O       2.117343      0.057023     -0.118076
  H       2.577790     -0.720348      0.222394
  H       2.512505      0.820106      0.321975
  O      -2.105368     -0.189427      0.135045
  H      -2.485528     -0.964448     -0.297692
  H      -2.550629      0.575601     -0.251120
  O      -0.146365      2.045843      0.070392
  H       0.334008      2.413450      0.823441
  H       0.277876      2.422871     -0.711007
  O       0.173131     -2.176472      0.019536
  H      -0.255597     -2.568945      0.790716
  H      -0.285196     -2.554849     -0.741754
  O       0.099927     -0.112570      2.149157
  H      -0.703702      0.293277      2.496668
  H       0.837893      0.435469      2.443792
  O      -0.099946     -0.068890     -2.057097
  H      -0.908049      0.204746     -2.504639
  H       0.624184      0.255968     -2.602936
19
Coordinates from ORCA-job zn_aquo6 E -2237.313802041363
  Zn      0.008876     -0.076986      0.026937
  O       2.117173      0.051052     -0.123491
  H       2.579585     -0.725337      0.217663
  H       2.511400      0.817062      0.313097
  O      -2.104064     -0.198787      0.132378
  H      -2.482482     -0.976434     -0.298259
  H      -2.549132      0.563000     -0.261647
  O      -0.144746      2.041299      0.055604
  H       0.337255      2.419212      0.802993
  H       0.281740      2.417004     -0.725853
  O       0.172316     -2.185296      0.025539
  H      -0.263324     -2.575908      0.794674
  H      -0.288969     -2.571510     -0.730897
  O       0.098672     -0.103648      2.148253
  H      -0.706908      0.293470      2.499379
  H       0.835457      0.441512      2.448666
  O      -0.099487     -0.091154     -2.063321
  H      -0.901214      0.256409     -2.471777
  H       0.620546      0.304464     -2.568376
19
Coordinates from ORCA-job zn_aquo6 E -2237.314171649799
  Zn      0.009272     -0.077757      0.012538
  O       2.107814      0.044015     -0.136460
  H       2.553952     -0.725714      0.240373
  H       2.473280      0.812883      0.320451
  O      -2.091685     -0.193836      0.139549
  H      -2.445953     -0.971663     -0.311820
  H      -2.519988      0.560389     -0.287174
  O      -0.135012      2.037122      0.034566
  H       0.338603      2.451508      0.768228
  H       0.261178      2.441018     -0.749369
  O       0.160636     -2.179240      0.017262
  H      -0.252705     -2.584936      0.791966
  H      -0.304778     -2.589531     -0.724879
  O       0.103269     -0.092649      2.131631
  H      -0.684661      0.269783      2.550732
  H       0.840339      0.413214      2.490307
  O      -0.102298     -0.106423     -2.076051
  H      -0.913609      0.266488     -2.446097
  H       0.625041      0.324752     -2.544189
19
Coordinates from ORCA-job zn_aquo6 E -2237.314288249604
  Zn      0.009009     -0.087229      0.009773
  O       2.105571      0.034645     -0.141298
  H       2.550759     -0.734480      0.235817
  H       2.475921      0.797295      0.320406
  O      -2.090974     -0.200555      0.137695
  H      -2.451094     -0.977777     -0.308060
  H      -2.519365      0.553492     -0.287099
  O      -0.135681      2.027063      0.028474
  H       0.334802      2.432245      0.768411
  H       0.265249      2.418623     -0.758374
  O       0.163252     -2.186104      0.022257
  H      -0.248807     -2.585047      0.799730
  H      -0.287150     -2.593400     -0.729294
  O       0.103051     -0.095214      2.127641
  H      -0.689598      0.295478      2.514201
  H       0.831351      0.443386      2.459136
  O      -0.105462     -0.123795     -2.074211
  H      -0.899301      0.317121     -2.403261
  H       0.611162      0.363677     -2.500379
19
Coordinates from ORCA-job zn_aquo6 E -2237.314424389342
  Zn      0.008518     -0.080164      0.013561
  O       2.106217      0.036977     -0.133951
  H       2.552461     -0.732919      0.239282
  H       2.482978      0.795600      0.328428
  O      -2.092922     -0.188175      0.139128
  H      -2.463565     -0.964337     -0.298336
  H      -2.527321      0.569956     -0.270482
  O      -0.133633      2.031636      0.037031
  H       0.323651      2.431855      0.786718
  H       0.255956      2.427568     -0.752086
  O       0.160988     -2.178527      0.019370
  H      -0.236285     -2.581972      0.800301
  H      -0.273895     -2.584197     -0.740174
  O       0.102397     -0.100049      2.127194
  H      -0.693499      0.288711      2.513480
  H       0.837693      0.433018      2.457640
  O      -0.103571     -0.107193     -2.071506
  H      -0.907622      0.277645     -2.439480
  H       0.624148      0.323993     -2.534554
19
Coordinates from ORCA-job zn_aquo6 E -2237.314514059726
  Zn      0.008552     -0.081295      0.009509
  O       2.106198      0.035887     -0.134924
  H       2.552386     -0.734465      0.238632
  H       2.478631      0.797620      0.326801
  O      -2.092151     -0.189100      0.139885
  H      -2.459966     -0.967147     -0.297616
  H      -2.526406      0.567862     -0.273107
  O      -0.131909      2.031861      0.029205
  H       0.324549      2.440899      0.775018
  H       0.253996      2.433639     -0.759218
  O       0.158556     -2.180143      0.018849
  H      -0.237984     -2.586346      0.799439
  H      -0.279371     -2.592527     -0.736050
  O       0.101803     -0.094525      2.124937
  H      -0.691759      0.280737      2.526928
  H       0.838075      0.426774      2.469090
  O      -0.101931     -0.112412     -2.078476
  H      -0.906169      0.286960     -2.432629
  H       0.627594      0.335143     -2.524707
19
Coordinates from ORCA-job zn_aquo6 E -2237.314514626063
  Zn      0.008467     -0.083123      0.007685
  O       2.105855      0.035049     -0.135323
  H       2.549978     -0.736079      0.238894
  H       2.474332      0.795973      0.330737
  O      -2.091810     -0.190625      0.142578
  H      -2.457672     -0.968898     -0.296012
  H      -2.524835      0.566118     -0.271934
  O      -0.132958      2.029884      0.025868
  H       0.325942      2.437077      0.771300
  H       0.254528      2.430560     -0.762444
  O       0.159554     -2.181282      0.018513
  H      -0.238214     -2.585424      0.799672
  H      -0.280306     -2.592914     -0.735812
  O       0.102536     -0.094528      2.122637
  H      -0.690197      0.282436      2.524010
  H       0.835951      0.431519      2.464842
  O      -0.101880     -0.115556     -2.081863
  H      -0.904813      0.295651     -2.425988
  H       0.628237      0.343587     -2.515797
19
Coordinates from ORCA-job zn_aquo6 E -2237.314529748451
  Zn      0.008118     -0.085076      0.005288
  O       2.106489      0.034377     -0.133787
  H       2.549550     -0.738503      0.237797
  H       2.471752      0.793686      0.337226
  O      -2.092906     -0.191137      0.146734
  H      -2.459583     -0.969900     -0.290061
  H      -2.526854      0.565670     -0.266417
  O      -0.134544      2.028198      0.020093
  H       0.325708      2.431731      0.766641
  H       0.254041      2.427521     -0.768301
  O       0.160671     -2.182995      0.018419
  H      -0.237519     -2.584326      0.800717
  H      -0.279665     -2.593780     -0.735992
  O       0.103074     -0.093790      2.119644
  H      -0.690931      0.281241      2.520481
  H       0.835238      0.436018      2.458963
  O      -0.100575     -0.118422     -2.088668
  H      -0.901226      0.306199     -2.421642
  H       0.631858      0.352712     -2.505571
19
Coordinates from ORCA-job zn_aquo6 E -2237.314539232694
  Zn      0.007765     -0.085387      0.004896
  O       2.107007      0.035572     -0.131465
  H       2.548652     -0.738921      0.238202
  H       2.469015      0.792940      0.345005
  O      -2.093945     -0.190528      0.151263
  H      -2.460765     -0.969368     -0.285177
  H      -2.528183      0.566596     -0.260864
  O      -0.136890      2.027346      0.017571
  H       0.326356      2.425618      0.765088
  H       0.253663      2.425053     -0.770616
  O       0.162260     -2.182805      0.017590
  H      -0.236754     -2.581380      0.800836
  H      -0.280563     -2.590780     -0.736852
  O       0.104232     -0.094809      2.117793
  H      -0.690513      0.279046      2.518212
  H       0.835341      0.438425      2.453998
  O      -0.099570     -0.117258     -2.092940
  H      -0.900301      0.306946     -2.425865
  H       0.635888      0.353118     -2.505114
19
Coordinates from ORCA-job zn_aquo6 E -2237.314546689009
  Zn      0.007536     -0.085317      0.005228
  O       2.107518      0.036486     -0.129744
  H       2.549566     -0.738875      0.237682
  H       2.469198      0.793004      0.348385
  O      -2.094790     -0.189750      0.153198
  H      -2.462780     -0.968847     -0.281876
  H      -2.529922      0.567269     -0.258259
  O      -0.138057      2.027179      0.015542
  H       0.325704      2.423951      0.763538
  H       0.252586      2.424812     -0.772611
  O       0.162528     -2.182602      0.017326
  H      -0.236583     -2.580405      0.800892
  H      -0.281586     -2.589768     -0.736762
  O       0.104792     -0.094756      2.117387
  H      -0.690761      0.275829      2.519337
  H       0.836532      0.437664      2.453678
  O      -0.098540     -0.116408     -2.095151
  H      -0.898527      0.307338     -2.430084
  H       0.638281      0.352621     -2.506142
19
Coordinates from ORCA-job zn_aquo6 E -2237.314562027871
  Zn      0.007231     -0.085193      0.006202
  O       2.107608      0.037628     -0.128199
  H       2.549963     -0.738504      0.237296
  H       2.468929      0.793009      0.352063
  O      -2.095327     -0.188884      0.155141
  H      -2.464137     -0.968339     -0.278695
  H      -2.530840      0.567721     -0.256772
  O      -0.139468      2.026600      0.013442
  H       0.325062      2.422496      0.761441
  H       0.251123      2.424407     -0.774633
  O       0.162489     -2.181881      0.016699
  H      -0.236231     -2.579394      0.800651
  H      -0.283430     -2.588262     -0.736785
  O       0.105731     -0.094994      2.117129
  H      -0.689984      0.272572      2.521491
  H       0.837640      0.436648      2.454258
  O      -0.097617     -0.115418     -2.096495
  H      -0.896390      0.307740     -2.434905
  H       0.640344      0.351472     -2.507766
19
Coordinates from ORCA-job zn_aquo6 E -2237.314531610225
  Zn      0.006804     -0.085214      0.007707
  O       2.107332      0.038702     -0.126797
  H       2.550408     -0.738304      0.236043
  H       2.468902      0.792639      0.355610
  O      -2.095672     -0.187852      0.156867
  H      -2.465568     -0.967961     -0.274907
  H      -2.531393      0.567926     -0.256391
  O      -0.140920      2.025559      0.010621
  H       0.323534      2.422009      0.758407
  H       0.248761      2.424140     -0.777513
  O       0.161711     -2.180879      0.015735
  H      -0.235543     -2.578974      0.800172
  H      -0.285710     -2.587063     -0.736997
  O       0.106895     -0.095092      2.116997
  H      -0.688554      0.269089      2.524893
  H       0.838681      0.435480      2.456031
  O      -0.096547     -0.114907     -2.097339
  H      -0.893055      0.309780     -2.439225
  H       0.642628      0.350346     -2.508350
19
Coordinates from ORCA-job zn_aquo6 E -2237.314558007051
  Zn      0.006489     -0.085327      0.008843
  O       2.106890      0.039140     -0.126550
  H       2.550532     -0.738370      0.234526
  H       2.469059      0.792067      0.356973
  O      -2.095700     -0.187370      0.157342
  H      -2.466144     -0.968074     -0.272856
  H      -2.531210      0.567696     -0.257417
  O      -0.141632      2.024824      0.009162
  H       0.322288      2.422544      0.756623
  H       0.247240      2.423927     -0.779112
  O       0.160800     -2.180238      0.014951
  H      -0.234925     -2.579307      0.799686
  H      -0.286994     -2.586661     -0.737444
  O       0.107581     -0.095082      2.117149
  H      -0.687471      0.267851      2.526938
  H       0.838894      0.435374      2.457373
  O      -0.096094     -0.115111     -2.097122
  H      -0.890897      0.312051     -2.440081
  H       0.643987      0.349489     -2.507422
19
Coordinates from ORCA-job zn_aquo6 E -2237.314559274958
  Zn      0.006205     -0.085433      0.009917
  O       2.106437      0.039417     -0.126869
  H       2.550709     -0.738579      0.232360
  H       2.469551      0.791483      0.357250
  O      -2.095689     -0.187161      0.157201
  H      -2.466478     -0.968548     -0.271388
  H      -2.530797      0.567193     -0.259221
  O      -0.142126      2.024353      0.008525
  H       0.321079      2.423486      0.755683
  H       0.246210      2.423577     -0.779957
  O       0.159905     -2.179762      0.014274
  H      -0.234499     -2.579850      0.799149
  H      -0.287955     -2.586350     -0.737979
  O       0.108034     -0.095007      2.117562
  H      -0.686831      0.267545      2.528087
  H       0.838784      0.435946      2.458234
  O      -0.095901     -0.115611     -2.096365
  H      -0.889223      0.314495     -2.439221
  H       0.645281      0.348229     -2.505676
19
Coordinates from ORCA-job zn_aquo6 E -2237.314527107835
  Zn      0.005827     -0.085514      0.011310
  O       2.105999      0.039883     -0.127584
  H       2.551091     -0.738825      0.229058
  H       2.470422      0.790779      0.357340
  O      -2.095860     -0.187048      0.156822
  H      -2.466952     -0.969416     -0.269659
  H      -2.530340      0.566357     -0.261940
  O      -0.142820      2.024072      0.008356
  H       0.319705      2.424681      0.755151
  H       0.245341      2.422919     -0.780413
  O       0.158942     -2.179336      0.013487
  H      -0.234078     -2.580571      0.798471
  H      -0.289205     -2.585797     -0.738654
  O       0.108532     -0.094901      2.118351
  H      -0.686429      0.267535      2.528848
  H       0.838576      0.437244      2.458718
  O      -0.095837     -0.116220     -2.095276
  H      -0.887387      0.317705     -2.437497
  H       0.647168      0.345877     -2.503326
19
Coordinates from ORCA-job zn_aquo6 E -2237.314561963061
  Zn      0.005323     -0.085500      0.013100
  O       2.105609      0.040708     -0.128591
  H       2.551741     -0.739085      0.224362
  H       2.471644      0.790037      0.357525
  O      -2.096295     -0.186900      0.156380
  H      -2.467642     -0.970688     -0.267227
  H      -2.529943      0.565197     -0.265570
  O      -0.143842      2.024029      0.008646
  H       0.318132      2.426041      0.755030
  H       0.244524      2.421948     -0.780498
  O       0.157974     -2.178890      0.012622
  H      -0.233576     -2.581344      0.797717
  H      -0.291037     -2.584775     -0.739307
  O       0.109096     -0.094754      2.119502
  H      -0.686355      0.267335      2.529397
  H       0.838370      0.439109      2.458871
  O      -0.095843     -0.116728     -2.093989
  H      -0.885133      0.321782     -2.435571
  H       0.649948      0.341901     -2.500837
19
Coordinates from ORCA-job zn_aquo6 E -2237.314562613371
  Zn      0.004918     -0.085392      0.014339
  O       2.105441      0.041531     -0.129464
  H       2.552179     -0.739214      0.220628
  H       2.472345      0.789559      0.358001
  O      -2.096793     -0.186707      0.156225
  H      -2.468090     -0.971798     -0.265029
  H      -2.529757      0.564234     -0.268514
  O      -0.144724      2.024244      0.009235
  H       0.317225      2.426823      0.755322
  H       0.244129      2.421103     -0.780205
  O       0.157545     -2.178642      0.012133
  H      -0.233022     -2.581759      0.797380
  H      -0.292713     -2.583737     -0.739473
  O       0.109487     -0.094629      2.120330
  H      -0.686627      0.266810      2.529531
  H       0.838281      0.440617      2.458578
  O      -0.095999     -0.116834     -2.093289
  H      -0.883423      0.325156     -2.434551
  H       0.652292      0.338059     -2.499613
19
Coordinates from ORCA-job zn_aquo6 E -2237.314563240435
  Zn      0.004608     -0.085253      0.015021
  O       2.105412      0.042218     -0.130134
  H       2.552392     -0.739309      0.217933
  H       2.472520      0.789250      0.358728
  O      -2.097265     -0.186387      0.156355
  H      -2.468316     -0.972685     -0.262888
  H      -2.529750      0.563472     -0.270812
  O      -0.145342      2.024569      0.009839
  H       0.316819      2.427274      0.755719
  H       0.243886      2.420578     -0.779841
  O       0.157452     -2.178567      0.011950
  H      -0.232192     -2.582061      0.797468
  H      -0.294161     -2.582975     -0.739221
  O       0.109689     -0.094513      2.120765
  H      -0.687035      0.265967      2.529607
  H       0.838169      0.441634      2.458253
  O      -0.096274     -0.116630     -2.093163
  H      -0.882027      0.328203     -2.434469
  H       0.654109      0.334640     -2.499547
19
Coordinates from ORCA-job zn_aquo6 E -2237.314563868669
  Zn      0.004309     -0.085093      0.015356
  O       2.105352      0.042839     -0.130872
  H       2.552288     -0.739452      0.215545
  H       2.472143      0.788898      0.359728
  O      -2.097681     -0.185870      0.156674
  H      -2.468233     -0.973639     -0.260263
  H      -2.529709      0.562638     -0.273336
  O      -0.145794      2.024932      0.010522
  H       0.316666      2.427641      0.756203
  H       0.243654      2.420213     -0.779409
  O       0.157524     -2.178539      0.011934
  H      -0.230839     -2.582378      0.797907
  H      -0.295652     -2.582340     -0.738626
  O       0.109795     -0.094393      2.120862
  H      -0.687497      0.264805      2.529693
  H       0.837883      0.442524      2.457946
  O      -0.096791     -0.116231     -2.093325
  H      -0.880508      0.331992     -2.434805
  H       0.655784      0.330879     -2.500170
19
Coordinates from ORCA-job zn_aquo6 E -2237.314564576444
  Zn      0.003849     -0.084844      0.015550
  O       2.105142      0.043617     -0.132049
  H       2.551855     -0.739754      0.212212
  H       2.471185      0.788216      0.361329
  O      -2.098201     -0.184856      0.157233
  H      -2.467937     -0.975174     -0.255584
  H      -2.529676      0.561195     -0.277577
  O      -0.146209      2.025461      0.011473
  H       0.316557      2.428371      0.756834
  H       0.243208      2.419971     -0.778851
  O       0.157622     -2.178490      0.011939
  H      -0.228137     -2.583064      0.798804
  H      -0.297822     -2.581711     -0.737562
  O       0.109844     -0.094210      2.120697
  H      -0.688145      0.262848      2.530005
  H       0.837153      0.443736      2.457785
  O      -0.097849     -0.115522     -2.093696
  H      -0.877909      0.338803     -2.435478
  H       0.658164      0.324830     -2.501500
19
Coordinates from ORCA-job zn_aquo6 E -2237.314553473676
  Zn      0.003378     -0.084585      0.015491
  O       2.104767      0.044247     -0.133242
  H       2.551224     -0.740150      0.208985
  H       2.470001      0.787382      0.362925
  O      -2.098567     -0.183670      0.157820
  H      -2.467548     -0.976998     -0.249824
  H      -2.529723      0.559333     -0.282443
  O      -0.146383      2.025925      0.012240
  H       0.316543      2.429240      0.757264
  H       0.242718      2.419950     -0.778473
  O       0.157672     -2.178344      0.011836
  H      -0.224904     -2.583836      0.799761
  H      -0.300012     -2.581274     -0.736450
  O       0.109804     -0.094069      2.120248
  H      -0.688764      0.260726      2.530377
  H       0.836026      0.444979      2.457894
  O      -0.099208     -0.114738     -2.094024
  H      -0.874847      0.347032     -2.435979
  H       0.660516      0.318271     -2.502842
19
Coordinates from ORCA-job zn_aquo6 E -2237.314525050537
  Zn      0.003086     -0.084372      0.015019
  O       2.104411      0.044442     -0.133930
  H       2.550682     -0.740477      0.207299
  H       2.469107      0.786709      0.363898
  O      -2.098669     -0.182738      0.158255
  H      -2.467388     -0.978649     -0.244509
  H      -2.530150      0.557522     -0.286231
  O      -0.146135      2.026258      0.012470
  H       0.316799      2.429876      0.757315
  H       0.242568      2.420297     -0.778431
  O       0.157719     -2.178186      0.011603
  H      -0.222306     -2.584371      0.800393
  H      -0.301317     -2.581281     -0.735760
  O       0.109635     -0.094028      2.119617
  H      -0.689265      0.259143      2.530508
  H       0.834809      0.445849      2.458181
  O      -0.100488     -0.114060     -2.094273
  H      -0.872448      0.354027     -2.436099
  H       0.662043      0.313460     -2.503761
19
Coordinates from ORCA-job zn_aquo6 E -2237.314542607905
  Zn      0.002041     -0.083571      0.013945
  O       2.103232      0.045345     -0.135901
  H       2.549376     -0.741374      0.201237
  H       2.467015      0.784612      0.366985
  O      -2.099145     -0.179800      0.159649
  H      -2.467548     -0.984271     -0.225839
  H      -2.531959      0.550847     -0.299067
  O      -0.145671      2.027368      0.012845
  H       0.317340      2.431915      0.757126
  H       0.242081      2.421246     -0.778605
  O       0.157611     -2.177383      0.010250
  H      -0.214439     -2.585773      0.801660
  H      -0.306007     -2.580758     -0.734114
  O       0.109296     -0.093982      2.117933
  H      -0.690884      0.253864      2.530895
  H       0.831014      0.448893      2.459070
  O      -0.104481     -0.111807     -2.094708
  H      -0.863796      0.377140     -2.436047
  H       0.667618      0.296911     -2.505751
19
Coordinates from ORCA-job zn_aquo6 E -2237.314555535140
  Zn      0.002773     -0.083801      0.013572
  O       2.103785      0.044392     -0.134235
  H       2.549971     -0.740846      0.206333
  H       2.468211      0.785957      0.364816
  O      -2.098530     -0.181297      0.159046
  H      -2.467581     -0.982122     -0.233419
  H      -2.531858      0.553221     -0.293006
  O      -0.145156      2.026918      0.012060
  H       0.317958      2.430439      0.756860
  H       0.243129      2.421469     -0.778802
  O       0.157887     -2.177595      0.010558
  H      -0.218611     -2.584391      0.800705
  H      -0.303049     -2.581307     -0.735294
  O       0.109226     -0.094286      2.118266
  H      -0.690288      0.256458      2.530085
  H       0.832376      0.447083      2.458792
  O      -0.103066     -0.112574     -2.094345
  H      -0.868772      0.366262     -2.435598
  H       0.664290      0.305443     -2.504832
19
Coordinates from ORCA-job zn_aquo6 E -2237.314569255891
  Zn      0.003319     -0.083850      0.012892
  O       2.104249      0.043661     -0.132750
  H       2.550478     -0.740474      0.210326
  H       2.469199      0.786882      0.363452
  O      -2.098112     -0.182219      0.158874
  H      -2.468014     -0.981390     -0.236251
  H      -2.532557      0.554081     -0.289252
  O      -0.144609      2.026768      0.011150
  H       0.318663      2.429127      0.756500
  H       0.244283      2.421879     -0.779139
  O       0.158221     -2.177707      0.010489
  H      -0.221456     -2.583117      0.799854
  H      -0.301057     -2.581680     -0.736253
  O       0.109105     -0.094577      2.118249
  H      -0.690208      0.257768      2.529087
  H       0.832953      0.446087      2.458406
  O      -0.102370     -0.112753     -2.094309
  H      -0.871653      0.360348     -2.435402
  H       0.662263      0.310590     -2.504357
19
Coordinates from ORCA-job zn_aquo6 E -2237.314560936669
  Zn      0.003333     -0.083592      0.012389
  O       2.104260      0.043629     -0.132366
  H       2.550472     -0.740459      0.210851
  H       2.469346      0.786930      0.363621
  O      -2.098084     -0.181983      0.159319
  H      -2.468252     -0.982628     -0.232566
  H      -2.533369      0.552534     -0.290912
  O      -0.144382      2.027052      0.010742
  H       0.319149      2.428772      0.756282
  H       0.244893      2.422242     -0.779323
  O       0.158353     -2.177484      0.009944
  H      -0.221319     -2.582486      0.799535
  H      -0.301491     -2.581406     -0.736488
  O       0.109110     -0.094770      2.117952
  H      -0.690609      0.256903      2.528593
  H       0.832442      0.446521      2.458223
  O      -0.102999     -0.112169     -2.094359
  H      -0.871026      0.363040     -2.435316
  H       0.662867      0.308777     -2.504558
19
Coordinates from ORCA-job zn_aquo6 E -2237.314574924100
  Zn      0.002994     -0.082363      0.010966
  O       2.104132      0.044074     -0.131806
  H       2.550282     -0.740715      0.209936
  H       2.469755      0.786437      0.365229
  O      -2.098405     -0.180285      0.161338
  H      -2.469098     -0.988699     -0.213783
  H      -2.536432      0.544872     -0.301290
  O      -0.143919      2.028551      0.009640
  H       0.320223      2.428546      0.755750
  H       0.246681      2.423666     -0.779817
  O       0.158393     -2.176456      0.007417
  H      -0.219150     -2.580734      0.798430
  H      -0.305060     -2.579869     -0.737085
  O       0.109371     -0.095272      2.117016
  H      -0.692402      0.252077      2.527337
  H       0.830009      0.449346      2.457694
  O      -0.105977     -0.109514     -2.094603
  H      -0.865874      0.378814     -2.435158
  H       0.667173      0.296947     -2.505648
19
Coordinates from ORCA-job zn_aquo6 E -2237.314560922268
  Zn      0.002757     -0.081917      0.010943
  O       2.104004      0.044387     -0.132071
  H       2.549966     -0.740918      0.208757
  H       2.469700      0.786077      0.365932
  O      -2.098613     -0.179544      0.162010
  H      -2.468892     -0.990779     -0.207383
  H      -2.536811      0.542109     -0.305901
  O      -0.144024      2.029053      0.009634
  H       0.320086      2.428959      0.755812
  H       0.246903      2.423994     -0.779746
  O       0.158040     -2.176036      0.006566
  H      -0.218224     -2.580436      0.798127
  H      -0.306871     -2.579111     -0.737210
  O       0.109673     -0.095312      2.116933
  H      -0.692741      0.250345      2.527424
  H       0.829398      0.450510      2.457608
  O      -0.106866     -0.108687     -2.094590
  H      -0.863656      0.384392     -2.435197
  H       0.668866      0.292338     -2.506085
19
Coordinates from ORCA-job zn_aquo6 E -2237.314563859338
  Zn      0.002509     -0.081378      0.011109
  O       2.103931      0.044586     -0.132476
  H       2.549403     -0.741265      0.207748
  H       2.469694      0.785622      0.366468
  O      -2.098871     -0.178697      0.162776
  H      -2.468177     -0.993280     -0.200164
  H      -2.536821      0.538739     -0.311810
  O      -0.144151      2.029630      0.009719
  H       0.319521      2.429748      0.756056
  H       0.247096      2.424492     -0.779538
  O       0.157211     -2.175576      0.005569
  H      -0.217720     -2.580181      0.797653
  H      -0.309096     -2.578275     -0.737533
  O       0.110231     -0.095234      2.117040
  H      -0.692774      0.248598      2.527883
  H       0.829064      0.451862      2.457534
  O      -0.107579     -0.107844     -2.094629
  H      -0.861331      0.389828     -2.435295
  H       0.670555      0.288050     -2.506547
19
Coordinates from ORCA-job zn_aquo6 E -2237.314572507021
  Zn      0.002198     -0.080089      0.010929
  O       2.103900      0.044420     -0.132845
  H       2.547942     -0.742104      0.207697
  H       2.469813      0.784886      0.366840
  O      -2.099195     -0.176963      0.164475
  H      -2.466170     -0.998969     -0.183780
  H      -2.537091      0.530642     -0.324709
  O      -0.143910      2.030902      0.009608
  H       0.318568      2.431058      0.756662
  H       0.248289      2.426024     -0.779036
  O       0.155310     -2.174526      0.003331
  H      -0.217731     -2.579057      0.796332
  H      -0.313317     -2.576610     -0.738630
  O       0.111411     -0.095133      2.117021
  H      -0.692731      0.245230      2.528493
  H       0.828405      0.454546      2.457191
  O      -0.109001     -0.105849     -2.094870
  H      -0.857248      0.400119     -2.435487
  H       0.673254      0.280898     -2.507658
19
Coordinates from ORCA-job zn_aquo6 E -2237.314573890963
  Zn      0.002011     -0.078295      0.010307
  O       2.104017      0.043499     -0.132853
  H       2.545842     -0.743294      0.209939
  H       2.470254      0.784188      0.366255
  O      -2.099454     -0.174843      0.166545
  H      -2.462991     -1.006342     -0.162231
  H      -2.537642      0.519119     -0.341577
  O      -0.143036      2.032556      0.009222
  H       0.317457      2.432524      0.757597
  H       0.250681      2.428454     -0.778262
  O       0.152523     -2.173142      0.000453
  H      -0.219193     -2.577209      0.794303
  H      -0.318103     -2.574660     -0.740529
  O       0.112942     -0.094962      2.116882
  H      -0.692382      0.241599      2.529128
  H       0.827870      0.457612      2.456666
  O      -0.110464     -0.103144     -2.095374
  H      -0.853245      0.410983     -2.435799
  H       0.675606      0.274780     -2.509109
19
Coordinates from ORCA-job zn_aquo6 E -2237.314575542504
  Zn      0.002180     -0.076109      0.009261
  O       2.104436      0.041159     -0.132242
  H       2.542979     -0.744864      0.216437
  H       2.471236      0.783815      0.363467
  O      -2.099514     -0.172810      0.168506
  H      -2.458012     -1.014648     -0.138842
  H      -2.538180      0.504868     -0.360767
  O      -0.141180      2.034312      0.008659
  H       0.316168      2.433818      0.759199
  H       0.254841      2.431696     -0.776903
  O       0.148689     -2.171582     -0.002455
  H      -0.223862     -2.574515      0.791572
  H      -0.322252     -2.572699     -0.743426
  O       0.114778     -0.094600      2.116740
  H      -0.691216      0.239352      2.529765
  H       0.828263      0.460242      2.455824
  O      -0.111062     -0.100091     -2.096236
  H      -0.851750      0.417322     -2.436338
  H       0.676155      0.274758     -2.510656
19
Coordinates from ORCA-job zn_aquo6 E -2237.314578575865
  Zn      0.002776     -0.073735      0.007806
  O       2.105133      0.037304     -0.130858
  H       2.539886     -0.746591      0.227142
  H       2.473091      0.783824      0.358051
  O      -2.099372     -0.171166      0.169656
  H      -2.452152     -1.023010     -0.116158
  H      -2.539389      0.489441     -0.379709
  O      -0.138151      2.035884      0.008011
  H       0.315040      2.434464      0.761555
  H       0.261139      2.435255     -0.774874
  O       0.144422     -2.169999     -0.004725
  H      -0.231803     -2.571262      0.788415
  H      -0.324448     -2.570939     -0.747069
  O       0.116426     -0.094078      2.116505
  H      -0.689503      0.239493      2.529949
  H       0.829520      0.461805      2.454673
  O      -0.110371     -0.096836     -2.097371
  H      -0.853913      0.416638     -2.437325
  H       0.674363      0.282933     -2.512113
19
Coordinates from ORCA-job zn_aquo6 E -2237.314580099721
  Zn      0.003581     -0.073725      0.007550
  O       2.105633      0.034681     -0.129716
  H       2.539734     -0.746784      0.234281
  H       2.474556      0.784644      0.353089
  O      -2.098967     -0.172277      0.167904
  H      -2.450898     -1.022938     -0.122620
  H      -2.539989      0.490978     -0.377410
  O      -0.136270      2.035194      0.008229
  H       0.315205      2.433284      0.763056
  H       0.264504      2.435311     -0.773515
  O       0.143884     -2.170215     -0.002838
  H      -0.237799     -2.570751      0.788065
  H      -0.320020     -2.571633     -0.748031
  O       0.116053     -0.093646      2.116644
  H      -0.688141      0.244839      2.529520
  H       0.831744      0.459222      2.454309
  O      -0.107556     -0.097180     -2.097661
  H      -0.861657      0.400484     -2.437882
  H       0.669095      0.299934     -2.511412
19
Coordinates from ORCA-job zn_aquo6 E -2237.314583181027
  Zn      0.003865     -0.071477      0.006344
  O       2.105780      0.031304     -0.129120
  H       2.538089     -0.748198      0.241137
  H       2.476788      0.784228      0.347385
  O      -2.099231     -0.170344      0.167074
  H      -2.447888     -1.029865     -0.100494
  H      -2.543808      0.476603     -0.394631
  O      -0.132823      2.036441      0.008445
  H       0.315310      2.433006      0.766067
  H       0.272670      2.436850     -0.770722
  O       0.141753     -2.168505     -0.003384
  H      -0.243533     -2.568704      0.785959
  H      -0.320089     -2.569154     -0.750281
  O       0.115960     -0.093049      2.115788
  H      -0.688157      0.246164      2.528292
  H       0.831631      0.459935      2.453358
  O      -0.106835     -0.093440     -2.098439
  H      -0.864112      0.399095     -2.439052
  H       0.667323      0.308533     -2.512162
19
Coordinates from ORCA-job zn_aquo6 E -2237.314588256284
  Zn      0.003623     -0.070942      0.006998
  O       2.105192      0.029870     -0.130500
  H       2.539615     -0.748837      0.239036
  H       2.478514      0.783566      0.343025
  O      -2.100031     -0.169516      0.163166
  H      -2.450051     -1.030499     -0.097836
  H      -2.548329      0.473985     -0.399454
  O      -0.130501      2.036108      0.010197
  H       0.316859      2.431719      0.768801
  H       0.279362      2.433966     -0.768052
  O       0.143643     -2.167891      0.000246
  H      -0.244596     -2.570236      0.787087
  H      -0.315621     -2.567291     -0.748980
  O       0.113351     -0.092157      2.115127
  H      -0.689734      0.250920      2.526583
  H       0.830988      0.457812      2.453599
  O      -0.105282     -0.091986     -2.098259
  H      -0.868748      0.390542     -2.439217
  H       0.664440      0.320290     -2.510004
19
Coordinates from ORCA-job zn_aquo6 E -2237.314589711465
  Zn      0.002835     -0.070607      0.008399
  O       2.104644      0.030559     -0.132659
  H       2.540387     -0.749595      0.232319
  H       2.478703      0.782314      0.343459
  O      -2.101001     -0.168165      0.162097
  H      -2.451230     -1.031207     -0.091935
  H      -2.549401      0.470091     -0.406477
  O      -0.130472      2.036478      0.010976
  H       0.316819      2.432727      0.769309
  H       0.280937      2.432287     -0.767530
  O       0.144163     -2.167442      0.001180
  H      -0.242257     -2.571855      0.787860
  H      -0.316541     -2.565621     -0.747852
  O       0.112334     -0.091483      2.115362
  H      -0.690925      0.250722      2.527164
  H       0.829961      0.458077      2.454518
  O      -0.105660     -0.091313     -2.098049
  H      -0.866908      0.395053     -2.438468
  H       0.666305      0.318403     -2.508109
19
Coordinates from ORCA-job zn_aquo6 E -2237.314590442452
  Zn      0.002503     -0.071026      0.009845
  O       2.104426      0.031573     -0.134027
  H       2.541143     -0.749670      0.227440
  H       2.478339      0.781807      0.344627
  O      -2.101244     -0.168158      0.161347
  H      -2.452211     -1.029815     -0.096436
  H      -2.548342      0.472703     -0.405409
  O      -0.131097      2.036297      0.011442
  H       0.316617      2.433431      0.769053
  H       0.280040      2.431011     -0.767758
  O       0.144911     -2.167662      0.002139
  H      -0.240668     -2.573151      0.788654
  H      -0.316160     -2.565304     -0.746947
  O       0.111578     -0.091238      2.116065
  H      -0.691292      0.251614      2.528021
  H       0.829959      0.457090      2.455568
  O      -0.105467     -0.092134     -2.097400
  H      -0.866890      0.393936     -2.437862
  H       0.666548      0.318121     -2.506797
19
Coordinates from ORCA-job zn_aquo6 E -2237.314608244585
  Zn      0.002376     -0.070798      0.010805
  O       2.104456      0.031680     -0.135002
  H       2.541134     -0.750174      0.225180
  H       2.478418      0.781214      0.344719
  O      -2.101344     -0.167707      0.160898
  H      -2.451792     -1.030426     -0.094095
  H      -2.547475      0.470844     -0.409264
  O      -0.130768      2.036716      0.011513
  H       0.316286      2.434334      0.769256
  H       0.280984      2.430913     -0.767615
  O       0.144761     -2.167512      0.002324
  H      -0.241099     -2.573431      0.788460
  H      -0.316112     -2.564569     -0.747187
  O       0.110906     -0.090968      2.116721
  H      -0.691561      0.252697      2.528740
  H       0.830059      0.456141      2.456524
  O      -0.105279     -0.092017     -2.096941
  H      -0.867430      0.392864     -2.437492
  H       0.666178      0.319623     -2.505981
19
Coordinates from ORCA-job zn_aquo6 E -2237.314591687208
  Zn      0.002475     -0.070609      0.011879
  O       2.104740      0.031731     -0.135981
  H       2.541216     -0.750821      0.222915
  H       2.478392      0.780453      0.345251
  O      -2.101091     -0.167410      0.160172
  H      -2.451334     -1.030974     -0.092200
  H      -2.545982      0.469363     -0.412945
  O      -0.129813      2.037398      0.011062
  H       0.316364      2.435156      0.769241
  H       0.282913      2.431175     -0.767747
  O       0.145161     -2.167568      0.002740
  H      -0.242553     -2.573362      0.788020
  H      -0.314468     -2.563936     -0.747888
  O       0.109207     -0.090786      2.117621
  H      -0.692185      0.255756      2.529295
  H       0.830344      0.453215      2.458192
  O      -0.104870     -0.092014     -2.096192
  H      -0.869937      0.388069     -2.437016
  H       0.664116      0.324587     -2.504856
19
Coordinates from ORCA-job zn_aquo6 E -2237.314586630763
  Zn      0.002701     -0.070530      0.011880
  O       2.105040      0.031749     -0.136057
  H       2.541308     -0.751197      0.222228
  H       2.478166      0.779994      0.346316
  O      -2.100642     -0.167309      0.159917
  H      -2.451341     -1.031339     -0.090132
  H      -2.545335      0.468380     -0.414508
  O      -0.128719      2.038040      0.010208
  H       0.317108      2.435124      0.768945
  H       0.284829      2.431895     -0.768116
  O       0.146068     -2.167806      0.002903
  H      -0.243676     -2.572802      0.787595
  H      -0.312291     -2.563999     -0.748589
  O       0.107456     -0.090886      2.117817
  H      -0.693001      0.258603      2.528844
  H       0.830299      0.450282      2.459315
  O      -0.104964     -0.091842     -2.095815
  H      -0.872303      0.384525     -2.436748
  H       0.661991      0.328541     -2.504440
19
Coordinates from ORCA-job zn_aquo6 E -2237.314592760856
  Zn      0.002830     -0.070577      0.011181
  O       2.105139      0.031981     -0.135550
  H       2.541339     -0.751253      0.222188
  H       2.477733      0.779790      0.347902
  O      -2.100284     -0.167242      0.160178
  H      -2.451725     -1.031427     -0.088250
  H      -2.545443      0.467921     -0.414429
  O      -0.128105      2.038420      0.009460
  H       0.317898      2.434604      0.768565
  H       0.285803      2.432613     -0.768500
  O       0.147002     -2.168072      0.002787
  H      -0.243820     -2.572192      0.787409
  H      -0.310835     -2.564502     -0.748899
  O       0.106345     -0.091109      2.117368
  H      -0.693592      0.260230      2.527862
  H       0.830128      0.448365      2.459592
  O      -0.105471     -0.091626     -2.095869
  H      -0.873263      0.384044     -2.436747
  H       0.661017      0.329453     -2.504686
19
Coordinates from ORCA-job zn_aquo6 E -2237.314582327573
  Zn      0.002882     -0.070627      0.010558
  O       2.105094      0.032114     -0.134953
  H       2.541331     -0.751330      0.222272
  H       2.477485      0.779592      0.349146
  O      -2.100062     -0.167145      0.160204
  H      -2.452032     -1.031485     -0.086929
  H      -2.545728      0.467453     -0.414615
  O      -0.127579      2.038609      0.009125
  H       0.318302      2.434034      0.768700
  H       0.286964      2.433089     -0.768349
  O       0.147685     -2.168289      0.002956
  H      -0.244462     -2.571755      0.787270
  H      -0.309218     -2.565035     -0.749138
  O       0.105460     -0.091131      2.116826
  H      -0.693716      0.262581      2.526789
  H       0.830499      0.446376      2.459500
  O      -0.105575     -0.091460     -2.096022
  H      -0.874510      0.382335     -2.436915
  H       0.659875      0.331496     -2.504862
19
Coordinates from ORCA-job zn_aquo6 E -2237.314593377465
  Zn      0.002801     -0.070783      0.009933
  O       2.104917      0.032589     -0.134164
  H       2.541293     -0.751414      0.221662
  H       2.477165      0.779209      0.351355
  O      -2.099946     -0.166990      0.160330
  H      -2.452468     -1.031456     -0.085619
  H      -2.545941      0.467113     -0.414788
  O      -0.127414      2.038719      0.008939
  H       0.318151      2.433525      0.769021
  H       0.287801      2.433554     -0.767997
  O       0.148237     -2.168590      0.003097
  H      -0.245263     -2.571429      0.787072
  H      -0.307603     -2.565822     -0.749392
  O       0.104739     -0.091007      2.116151
  H      -0.693373      0.265773      2.525545
  H       0.831517      0.444005      2.459053
  O      -0.105512     -0.091472     -2.096335
  H      -0.875449      0.380675     -2.437240
  H       0.659044      0.333225     -2.505059
19
Coordinates from ORCA-job zn_aquo6 E -2237.314579545432
  Zn      0.002465     -0.071158      0.009536
  O       2.104480      0.033760     -0.133331
  H       2.541319     -0.751440      0.219290
  H       2.476650      0.778591      0.354990
  O      -2.100023     -0.166762      0.160569
  H      -2.453214     -1.030957     -0.085397
  H      -2.545820      0.467673     -0.414351
  O      -0.128053      2.038641      0.009067
  H       0.317149      2.433321      0.769423
  H       0.287484      2.433809     -0.767526
  O       0.148568     -2.168984      0.003169
  H      -0.245519     -2.571534      0.787004
  H      -0.306414     -2.566934     -0.749465
  O       0.104353     -0.090733      2.115462
  H      -0.692424      0.269526      2.524404
  H       0.833243      0.441433      2.458303
  O      -0.105323     -0.091905     -2.096676
  H      -0.875379      0.379990     -2.437662
  H       0.659153      0.333086     -2.505245
19
Coordinates from ORCA-job zn_aquo6 E -2237.314571363326
  Zn      0.001943     -0.071457      0.009581
  O       2.103906      0.035257     -0.132710
  H       2.541247     -0.751730      0.215287
  H       2.476152      0.777422      0.359612
  O      -2.100304     -0.166272      0.160553
  H      -2.453797     -1.030742     -0.084056
  H      -2.545436      0.467363     -0.415796
  O      -0.128998      2.038651      0.009404
  H       0.315301      2.433553      0.770170
  H       0.287321      2.433893     -0.766735
  O       0.148578     -2.169266      0.003314
  H      -0.246265     -2.571816      0.786766
  H      -0.305248     -2.567785     -0.749710
  O       0.103911     -0.090224      2.115006
  H      -0.690886      0.274883      2.523487
  H       0.835840      0.437938      2.457547
  O      -0.104708     -0.092413     -2.096940
  H      -0.875261      0.378527     -2.438140
  H       0.659399      0.333641     -2.505078
19
Coordinates from ORCA-job zn_aquo6 E -2237.314594118474
  Zn      0.001738     -0.071460      0.009909
  O       2.103731      0.035770     -0.132681
  H       2.541194     -0.752003      0.213392
  H       2.476113      0.776815      0.361237
  O      -2.100511     -0.166056      0.160293
  H      -2.453729     -1.030818     -0.083678
  H      -2.545164      0.466976     -0.417096
  O      -0.129506      2.038698      0.009617
  H       0.314187      2.433972      0.770541
  H       0.287208      2.433809     -0.766375
  O       0.148256     -2.169231      0.003435
  H      -0.246891     -2.572014      0.786607
  H      -0.305012     -2.567808     -0.749891
  O       0.103836     -0.089944      2.115189
  H      -0.689980      0.277290      2.523655
  H       0.837208      0.436383      2.457467
  O      -0.104149     -0.092640     -2.096920
  H      -0.875304      0.377183     -2.438310
  H       0.659467      0.334502     -2.504826
19
Coordinates from ORCA-job zn_aquo6 E -2237.314601524601
  Zn      0.001725     -0.071329      0.010276
  O       2.103783      0.035754     -0.132884
  H       2.541126     -0.752139      0.213078
  H       2.476272      0.776689      0.361126
  O      -2.100695     -0.166112      0.160104
  H      -2.453305     -1.030918     -0.084565
  H      -2.545100      0.467087     -0.417290
  O      -0.130096      2.038629      0.009707
  H       0.313478      2.434420      0.770431
  H       0.286366      2.433539     -0.766523
  O       0.147624     -2.168952      0.003343
  H      -0.246951     -2.572131      0.786586
  H      -0.305966     -2.567335     -0.749886
  O       0.104405     -0.089904      2.115699
  H      -0.689358      0.276910      2.524623
  H       0.837768      0.436681      2.457589
  O      -0.103736     -0.092773     -2.096822
  H      -0.874715      0.377260     -2.438329
  H       0.660069      0.334048     -2.504698
19
Coordinates from ORCA-job zn_aquo6 E -2237.314604511955
  Zn      0.001715     -0.071212      0.010381
  O       2.103804      0.035969     -0.132898
  H       2.541102     -0.752283      0.212304
  H       2.476189      0.776407      0.361939
  O      -2.100823     -0.166150      0.159985
  H      -2.453102     -1.030917     -0.085271
  H      -2.545288      0.467330     -0.417042
  O      -0.130798      2.038592      0.009540
  H       0.312914      2.434632      0.770055
  H       0.285409      2.433287     -0.766937
  O       0.147311     -2.168640      0.003226
  H      -0.246620     -2.572065      0.786660
  H      -0.306749     -2.566871     -0.749796
  O       0.104738     -0.089987      2.116055
  H      -0.688764      0.276893      2.525415
  H       0.838366      0.436350      2.457748
  O      -0.103499     -0.092875     -2.096749
  H      -0.873976      0.377895     -2.438378
  H       0.660767      0.333069     -2.504673
19
Coordinates from ORCA-job zn_aquo6 E -2237.314603945912
  Zn      0.001675     -0.071074      0.010150
  O       2.103788      0.036637     -0.132518
  H       2.541123     -0.752602      0.210377
  H       2.475838      0.775616      0.364755
  O      -2.100989     -0.166165      0.159848
  H      -2.453073     -1.030894     -0.085805
  H      -2.545903      0.467551     -0.416559
  O      -0.131960      2.038619      0.009041
  H       0.312028      2.434688      0.769384
  H       0.284082      2.433075     -0.767651
  O       0.147172     -2.168232      0.003095
  H      -0.246078     -2.571778      0.786812
  H      -0.307380     -2.566430     -0.749654
  O       0.104819     -0.090127      2.116343
  H      -0.687647      0.278461      2.526173
  H       0.839765      0.434459      2.457905
  O      -0.103184     -0.092994     -2.096797
  H      -0.873026      0.378695     -2.438593
  H       0.661646      0.331919     -2.504743
19
Coordinates from ORCA-job zn_aquo6 E -2237.314603149761
  Zn      0.001607     -0.071008      0.009693
  O       2.103682      0.037489     -0.131827
  H       2.541117     -0.752977      0.208107
  H       2.475364      0.774585      0.368503
  O      -2.101062     -0.166116      0.159661
  H      -2.453207     -1.030855     -0.085871
  H      -2.546469      0.467584     -0.416371
  O      -0.132866      2.038692      0.008585
  H       0.311143      2.434534      0.769038
  H       0.283385      2.433092     -0.768025
  O       0.147349     -2.167984      0.003168
  H      -0.246011     -2.571375      0.786912
  H      -0.307048     -2.566365     -0.749578
  O       0.104401     -0.090148      2.116291
  H      -0.686396      0.281899      2.526222
  H       0.841611      0.431237      2.457879
  O      -0.102795     -0.093100     -2.096954
  H      -0.872905      0.377974     -2.438984
  H       0.661794      0.332267     -2.504884
19
Coordinates from ORCA-job zn_aquo6 E -2237.314593809602
  Zn      0.001560     -0.070982      0.009374
  O       2.103603      0.037979     -0.131322
  H       2.541084     -0.753277      0.206713
  H       2.475123      0.773850      0.370929
  O      -2.101052     -0.166036      0.159514
  H      -2.453328     -1.030997     -0.085075
  H      -2.546715      0.467097     -0.416946
  O      -0.133060      2.038781      0.008348
  H       0.310709      2.434343      0.769085
  H       0.283670      2.433246     -0.767972
  O       0.147587     -2.167936      0.003318
  H      -0.246417     -2.571081      0.786873
  H      -0.306289     -2.566482     -0.749657
  O       0.103812     -0.090035      2.116084
  H      -0.685727      0.284936      2.525776
  H       0.842797      0.428777      2.457761
  O      -0.102502     -0.093098     -2.097127
  H      -0.873477      0.376485     -2.439257
  H       0.661317      0.333853     -2.504856
19
Coordinates from ORCA-job zn_aquo6 E -2237.314594639091
  Zn      0.001593     -0.070987      0.009373
  O       2.103646      0.037779     -0.131411
  H       2.541081     -0.753252      0.207208
  H       2.475259      0.774009      0.370245
  O      -2.100996     -0.166060      0.159570
  H      -2.453332     -1.031113     -0.084618
  H      -2.546615      0.466812     -0.417215
  O      -0.132678      2.038791      0.008465
  H       0.311048      2.434320      0.769245
  H       0.284058      2.433355     -0.767801
  O       0.147641     -2.168021      0.003312
  H      -0.246409     -2.571125      0.786866
  H      -0.306260     -2.566564     -0.749651
  O       0.103733     -0.090003      2.115989
  H      -0.686133      0.284473      2.525505
  H       0.842311      0.429355      2.457716
  O      -0.102659     -0.092981     -2.097150
  H      -0.873694      0.376556     -2.439206
  H       0.661100      0.334079     -2.504879
