19
Coordinates from ORCA-job zn_aquo6 E -2237.314594639091
  Zn          0.00159315345367     -0.07098723069581      0.00937321763826
  O           2.10364624568319      0.03777934252541     -0.13141139708675
  H           2.54108111821064     -0.75325244738651      0.20720775417827
  H           2.47525852876712      0.77400940174494      0.37024467214226
  O          -2.10099586928452     -0.16605995639543      0.15957026802363
  H          -2.45333187962991     -1.03111323983529     -0.08461789290537
  H          -2.54661518548906      0.46681242929928     -0.41721453126923
  O          -0.13267764292914      2.03879082129123      0.00846478897232
  H           0.31104762026169      2.43432011264038      0.76924455517362
  H           0.28405772496431      2.43335547712519     -0.76780134622460
  O           0.14764075212495     -2.16802085020019      0.00331232969498
  H          -0.24640884025858     -2.57112517917564      0.78686626695607
  H          -0.30626042090169     -2.56656353022849     -0.74965121935046
  O           0.10373346122047     -0.09000346137490      2.11598920611143
  H          -0.68613265928615      0.28447284830441      2.52550522385725
  H           0.84231129847618      0.42935495447690      2.45771573748038
  O          -0.10265882863646     -0.09298111380536     -2.09714995228916
  H          -0.87369430647292      0.37655585279131     -2.43920554509869
  H           0.66110040972620      0.33407931889858     -2.50487870600420
