33
Coordinates from ORCA-job zn_P1_cplx E -2769.426682612965
  Zn     -4.793190      0.317148     -0.741757
  C       3.865208     -0.733063      0.730208
  O       2.600727     -0.152461      0.424498
  C       1.543808     -0.978613      0.404542
  O       1.653478     -2.175785      0.633211
  C       0.285644     -0.309288      0.090984
  C      -0.881342     -1.077382      0.054549
  C      -2.085578     -0.476856     -0.230826
  O      -3.279647     -1.156793     -0.285088
  C      -2.171196      0.901033     -0.488045
  O      -3.315226      1.483873     -0.756044
  C      -0.979518      1.661250     -0.451978
  O      -1.061304      2.996487     -0.705675
  C       0.228145      1.064389     -0.165709
  H       3.846266     -1.168265      1.730875
  H       4.583245      0.079106      0.673392
  H       4.103375     -1.517112      0.009417
  H      -0.801951     -2.134786      0.255752
  H      -3.132959     -2.094585     -0.093778
  H      -2.001057      3.191842     -0.883945
  H       1.124153      1.661841     -0.141147
  O      -6.130604     -1.170431     -0.651733
  H      -6.113763     -1.765486      0.107658
  H      -7.062281     -1.019188     -0.858211
  O      -6.221504      1.694982     -1.157217
  H      -6.640638      1.665545     -2.028822
  H      -5.946985      2.612241     -1.026545
  O      -5.146364      0.564167      1.284592
  H      -4.468564      0.988363      1.822486
  H      -5.998663      0.879921      1.617498
  O      -4.675756     -0.107004     -2.745739
  H      -4.879596     -0.978795     -3.110034
  H      -3.988697      0.282630     -3.298789
33
Coordinates from ORCA-job zn_P1_cplx E -2769.429738383147
  Zn     -4.802987      0.317116     -0.745870
  C       3.870980     -0.740384      0.717278
  O       2.605896     -0.151140      0.422458
  C       1.553798     -0.976931      0.409672
  O       1.667714     -2.170925      0.636771
  C       0.292252     -0.306385      0.099286
  C      -0.873318     -1.076164      0.064564
  C      -2.075672     -0.473488     -0.222287
  O      -3.270445     -1.152269     -0.276938
  C      -2.166955      0.903272     -0.482644
  O      -3.309490      1.487165     -0.754273
  C      -0.978263      1.658423     -0.442378
  O      -1.064175      2.993574     -0.695015
  C       0.232316      1.067700     -0.156894
  H       3.862786     -1.178388      1.716598
  H       4.592460      0.070429      0.661885
  H       4.109385     -1.516583     -0.011331
  H      -0.805545     -2.139046      0.266058
  H      -3.129836     -2.086987     -0.084723
  H      -1.999387      3.182274     -0.869614
  H       1.129380      1.672654     -0.132863
  O      -6.147596     -1.183152     -0.661552
  H      -6.133862     -1.771319      0.102003
  H      -7.077008     -1.025306     -0.861486
  O      -6.239814      1.706636     -1.163961
  H      -6.648293      1.679458     -2.036732
  H      -5.965123      2.621845     -1.032631
  O      -5.160419      0.566271      1.293326
  H      -4.486779      1.004003      1.825510
  H      -6.008810      0.886922      1.617005
  O      -4.676113     -0.113097     -2.762247
  H      -4.868066     -0.986799     -3.118089
  H      -3.971346      0.259549     -3.302307
33
Coordinates from ORCA-job zn_P1_cplx E -2769.434467140392
  Zn     -4.831647      0.316607     -0.754002
  C       3.891259     -0.746905      0.714573
  O       2.625319     -0.151742      0.422610
  C       1.582595     -0.981497      0.407818
  O       1.697109     -2.170001      0.640157
  C       0.314646     -0.306724      0.102594
  C      -0.848915     -1.078428      0.070045
  C      -2.048262     -0.469389     -0.214729
  O      -3.245445     -1.142929     -0.267864
  C      -2.152075      0.905170     -0.478245
  O      -3.291277      1.493838     -0.750516
  C      -0.964499      1.648720     -0.433994
  O      -1.053221      2.986764     -0.685206
  C       0.251802      1.067181     -0.151556
  H       3.892355     -1.187611      1.711810
  H       4.614277      0.065482      0.670876
  H       4.144700     -1.505749     -0.025858
  H      -0.812140     -2.146276      0.267919
  H      -3.123808     -2.078230     -0.076737
  H      -1.987118      3.169722     -0.853940
  H       1.145403      1.682473     -0.130047
  O      -6.196959     -1.218762     -0.680599
  H      -6.182241     -1.792967      0.093388
  H      -7.126166     -1.037557     -0.856447
  O      -6.293828      1.741243     -1.166084
  H      -6.684808      1.717074     -2.045430
  H      -6.014284      2.654017     -1.032986
  O      -5.187924      0.566829      1.323970
  H      -4.516138      1.030381      1.836841
  H      -6.032586      0.909208      1.628948
  O      -4.694174     -0.121535     -2.807900
  H      -4.864371     -1.006273     -3.143873
  H      -3.949919      0.216793     -3.316958
33
Coordinates from ORCA-job zn_P1_cplx E -2769.435619376066
  Zn     -4.849232      0.314710     -0.760950
  C       3.908862     -0.749857      0.689150
  O       2.638180     -0.153264      0.424101
  C       1.591491     -0.980007      0.434674
  O       1.706131     -2.172963      0.644993
  C       0.323568     -0.304935      0.124469
  C      -0.839285     -1.077276      0.087007
  C      -2.037743     -0.467123     -0.201634
  O      -3.235166     -1.137412     -0.258999
  C      -2.144513      0.906563     -0.466871
  O      -3.281394      1.496056     -0.743979
  C      -0.954851      1.648647     -0.417544
  O      -1.041197      2.988611     -0.669776
  C       0.261477      1.068168     -0.130534
  H       3.930996     -1.188675      1.686897
  H       4.632459      0.061097      0.630803
  H       4.146650     -1.506542     -0.058677
  H      -0.815075     -2.144341      0.283036
  H      -3.126755     -2.075316     -0.068246
  H      -1.977110      3.170165     -0.841196
  H       1.151986      1.685054     -0.106528
  O      -6.223964     -1.241751     -0.700993
  H      -6.209803     -1.803042      0.082846
  H      -7.152888     -1.040391     -0.859988
  O      -6.324465      1.757238     -1.174854
  H      -6.697108      1.733765     -2.063252
  H      -6.040285      2.668695     -1.039354
  O      -5.212484      0.563593      1.336689
  H      -4.542587      1.046093      1.834566
  H      -6.057210      0.926382      1.621832
  O      -4.697457     -0.126524     -2.834558
  H      -4.852416     -1.022179     -3.151950
  H      -3.921150      0.185683     -3.312603
33
Coordinates from ORCA-job zn_P1_cplx E -2769.435840686512
  Zn     -4.869407      0.312999     -0.759972
  C       3.913210     -0.737628      0.742101
  O       2.650980     -0.155380      0.418609
  C       1.610873     -0.992750      0.369111
  O       1.715234     -2.178413      0.628739
  C       0.341033     -0.314548      0.078345
  C      -0.823695     -1.084316      0.051190
  C      -2.025035     -0.471036     -0.221859
  O      -3.223926     -1.135120     -0.271040
  C      -2.133189      0.903650     -0.480225
  O      -3.270847      1.495575     -0.744142
  C      -0.939207      1.645180     -0.439813
  O      -1.023660      2.987754     -0.686211
  C       0.278404      1.059784     -0.167325
  H       3.886764     -1.189516      1.734100
  H       4.628140      0.082418      0.731906
  H       4.196728     -1.481317     -0.003266
  H      -0.805456     -2.150835      0.240273
  H      -3.129187     -2.076949     -0.087238
  H      -1.963572      3.170377     -0.847811
  H       1.167957      1.674707     -0.149672
  O      -6.253048     -1.263426     -0.706185
  H      -6.228862     -1.808100      0.089709
  H      -7.181591     -1.030856     -0.826701
  O      -6.360495      1.776092     -1.147735
  H      -6.718389      1.758890     -2.043659
  H      -6.065265      2.684054     -1.008169
  O      -5.210383      0.547694      1.362175
  H      -4.534931      1.053491      1.828984
  H      -6.049432      0.939285      1.631623
  O      -4.731035     -0.119379     -2.856267
  H      -4.873322     -1.028427     -3.144858
  H      -3.917728      0.154969     -3.296138
33
Coordinates from ORCA-job zn_P1_cplx E -2769.436538351793
  Zn     -4.869571      0.311336     -0.763338
  C       3.917697     -0.744040      0.703902
  O       2.650188     -0.154491      0.419156
  C       1.601409     -0.983417      0.409337
  O       1.712373     -2.176201      0.634996
  C       0.334378     -0.308444      0.108366
  C      -0.829571     -1.079096      0.073589
  C      -2.030529     -0.468538     -0.207205
  O      -3.227925     -1.133400     -0.263311
  C      -2.135502      0.906426     -0.466839
  O      -3.272696      1.495566     -0.738375
  C      -0.942804      1.651841     -0.421518
  O      -1.027072      2.993234     -0.669963
  C       0.272200      1.065616     -0.141055
  H       3.917737     -1.192546      1.697986
  H       4.637756      0.070208      0.665197
  H       4.167635     -1.496350     -0.045076
  H      -0.804883     -2.145073      0.264469
  H      -3.133903     -2.075150     -0.078636
  H      -1.965893      3.175237     -0.837768
  H       1.162232      1.679600     -0.118621
  O      -6.248814     -1.266535     -0.719709
  H      -6.228880     -1.802710      0.082381
  H      -7.175732     -1.026459     -0.840359
  O      -6.358916      1.769407     -1.160974
  H      -6.702224      1.751848     -2.062766
  H      -6.062483      2.676749     -1.018841
  O      -5.223295      0.544053      1.354118
  H      -4.551078      1.059656      1.815342
  H      -6.063986      0.942216      1.609532
  O      -4.716796     -0.120552     -2.856006
  H      -4.854069     -1.034285     -3.133181
  H      -3.889321      0.143220     -3.276252
33
Coordinates from ORCA-job zn_P1_cplx E -2769.436949148616
  Zn     -4.870501      0.309527     -0.763814
  C       3.915136     -0.745684      0.689157
  O       2.646457     -0.153455      0.416543
  C       1.594589     -0.978883      0.419611
  O       1.709424     -2.174243      0.632904
  C       0.329671     -0.306214      0.116392
  C      -0.834406     -1.076799      0.078862
  C      -2.035677     -0.467903     -0.203092
  O      -3.232290     -1.132010     -0.262165
  C      -2.136791      0.907979     -0.460780
  O      -3.274720      1.494826     -0.734009
  C      -0.945620      1.656910     -0.414995
  O      -1.031003      2.996945     -0.662703
  C       0.267418      1.068431     -0.133155
  H       3.921231     -1.196207      1.682462
  H       4.636324      0.066697      0.642227
  H       4.152563     -1.502224     -0.059834
  H      -0.800021     -2.142650      0.270094
  H      -3.139001     -2.074076     -0.079078
  H      -1.969173      3.179306     -0.832510
  H       1.159137      1.680458     -0.108667
  O      -6.243459     -1.269997     -0.729590
  H      -6.224861     -1.792037      0.082177
  H      -7.167558     -1.015129     -0.843573
  O      -6.358502      1.761744     -1.162113
  H      -6.682752      1.746450     -2.071100
  H      -6.057431      2.666957     -1.015156
  O      -5.227545      0.534147      1.349155
  H      -4.556718      1.066335      1.793985
  H      -6.068607      0.943031      1.586798
  O      -4.710915     -0.116270     -2.852726
  H      -4.843377     -1.037012     -3.109335
  H      -3.863358      0.129977     -3.243392
33
Coordinates from ORCA-job zn_P1_cplx E -2769.437358307188
  Zn     -4.874238      0.306694     -0.762876
  C       3.909954     -0.746656      0.680996
  O       2.641444     -0.152604      0.410722
  C       1.587843     -0.976137      0.415799
  O       1.705547     -2.172547      0.625748
  C       0.324293     -0.304795      0.114864
  C      -0.840582     -1.075020      0.076658
  C      -2.042346     -0.467256     -0.202939
  O      -3.238869     -1.128772     -0.263879
  C      -2.138868      0.909984     -0.456040
  O      -3.278647      1.493993     -0.727937
  C      -0.949925      1.662614     -0.411812
  O      -1.037993      3.000880     -0.656837
  C       0.261615      1.071088     -0.132316
  H       3.914269     -1.203191      1.671687
  H       4.630894      0.065596      0.635177
  H       4.143534     -1.504837     -0.067713
  H      -0.792348     -2.140770      0.267178
  H      -3.147294     -2.071678     -0.084765
  H      -1.975704      3.183883     -0.826822
  H       1.155926      1.680063     -0.106945
  O      -6.236231     -1.277673     -0.743042
  H      -6.217651     -1.771910      0.086435
  H      -7.153932     -0.994287     -0.843736
  O      -6.361097      1.750026     -1.156705
  H      -6.650268      1.740153     -2.077721
  H      -6.050230      2.650493     -0.999677
  O      -5.230775      0.515282      1.344176
  H      -4.562470      1.079755      1.752643
  H      -6.072145      0.942092      1.548326
  O      -4.707379     -0.105918     -2.847122
  H      -4.831417     -1.038827     -3.061792
  H      -3.827245      0.109211     -3.181154
33
Coordinates from ORCA-job zn_P1_cplx E -2769.437476619870
  Zn     -4.875615      0.306245     -0.760991
  C       3.907407     -0.746585      0.684959
  O       2.639671     -0.153052      0.408079
  C       1.587677     -0.978128      0.405812
  O       1.704022     -2.173132      0.622596
  C       0.323243     -0.305417      0.108164
  C      -0.842058     -1.075635      0.072055
  C      -2.043595     -0.466929     -0.205071
  O      -3.241190     -1.126994     -0.264868
  C      -2.140273      0.910490     -0.457025
  O      -3.280955      1.494547     -0.726689
  C      -0.951576      1.662183     -0.414480
  O      -1.040469      3.000353     -0.658721
  C       0.260787      1.070686     -0.137709
  H       3.907613     -1.204857      1.674772
  H       4.627436      0.066974      0.645286
  H       4.147971     -1.502348     -0.063880
  H      -0.792238     -2.141529      0.262131
  H      -3.149753     -2.070147     -0.087257
  H      -1.978252      3.183562     -0.827316
  H       1.155724      1.679027     -0.113772
  O      -6.232856     -1.281006     -0.743684
  H      -6.215247     -1.763587      0.092755
  H      -7.147795     -0.989367     -0.846379
  O      -6.362169      1.745546     -1.152212
  H      -6.637251      1.738515     -2.077595
  H      -6.048469      2.644030     -0.989143
  O      -5.229913      0.509984      1.343778
  H      -4.563271      1.087143      1.737488
  H      -6.074100      0.936791      1.536390
  O      -4.707150     -0.101118     -2.843803
  H      -4.830108     -1.037368     -3.044392
  H      -3.819584      0.110050     -3.160701
33
Coordinates from ORCA-job zn_P1_cplx E -2769.437554192061
  Zn     -4.877413      0.306519     -0.759056
  C       3.906634     -0.746877      0.688450
  O       2.639455     -0.154248      0.406008
  C       1.589485     -0.981240      0.397361
  O       1.703116     -2.174663      0.620561
  C       0.323630     -0.306241      0.102546
  C      -0.841782     -1.076634      0.068803
  C      -2.042773     -0.466129     -0.206242
  O      -3.241846     -1.124951     -0.264119
  C      -2.141536      0.911022     -0.458341
  O      -3.282447      1.496181     -0.725801
  C      -0.952024      1.660069     -0.417021
  O      -1.040407      2.999100     -0.661128
  C       0.261844      1.069574     -0.142608
  H       3.904805     -1.204468      1.678441
  H       4.626085      0.067755      0.653578
  H       4.154455     -1.499295     -0.061228
  H      -0.796028     -2.142698      0.258384
  H      -3.150930     -2.068339     -0.087365
  H      -1.978554      3.182315     -0.828040
  H       1.156415      1.678254     -0.120536
  O      -6.231517     -1.285760     -0.741970
  H      -6.217274     -1.758442      0.100008
  H      -7.144464     -0.991395     -0.853128
  O      -6.364842      1.743750     -1.149542
  H      -6.628130      1.739809     -2.078417
  H      -6.051133      2.640902     -0.979180
  O      -5.230639      0.508956      1.345617
  H      -4.567002      1.096113      1.729261
  H      -6.079140      0.930225      1.530866
  O      -4.705880     -0.097918     -2.842870
  H      -4.827411     -1.035876     -3.035096
  H      -3.815086      0.113559     -3.149619
33
Coordinates from ORCA-job zn_P1_cplx E -2769.437567640860
  Zn     -4.877835      0.306964     -0.757798
  C       3.906683     -0.747963      0.686779
  O       2.639479     -0.155213      0.404784
  C       1.589895     -0.982430      0.396135
  O       1.702295     -2.175525      0.619832
  C       0.323440     -0.306240      0.101981
  C      -0.841884     -1.076654      0.069215
  C      -2.042547     -0.465149     -0.205350
  O      -3.242280     -1.123801     -0.262075
  C      -2.142776      0.911782     -0.458079
  O      -3.283432      1.497754     -0.724740
  C      -0.952467      1.659159     -0.416989
  O      -1.039836      2.998947     -0.661269
  C       0.262097      1.069269     -0.143234
  H       3.906206     -1.203917      1.677468
  H       4.626623      0.066396      0.651440
  H       4.155167     -1.499381     -0.063608
  H      -0.800003     -2.142825      0.258662
  H      -3.151383     -2.067226     -0.085475
  H      -1.978125      3.182228     -0.827446
  H       1.156195      1.678506     -0.121984
  O      -6.229739     -1.289171     -0.740230
  H      -6.220127     -1.756035      0.104922
  H      -7.142034     -0.996848     -0.860892
  O      -6.365798      1.742534     -1.150428
  H      -6.621885      1.741101     -2.081309
  H      -6.054371      2.639311     -0.974164
  O      -5.232604      0.510502      1.346666
  H      -4.572319      1.103290      1.727118
  H      -6.084437      0.925933      1.529198
  O      -4.702033     -0.096917     -2.842358
  H      -4.821975     -1.035406     -3.032514
  H      -3.810526      0.115951     -3.145680
33
Coordinates from ORCA-job zn_P1_cplx E -2769.437591131439
  Zn     -4.877825      0.307661     -0.755649
  C       3.906602     -0.749912      0.682039
  O       2.639225     -0.156558      0.402679
  C       1.589356     -0.983287      0.396267
  O       1.700837     -2.176482      0.618547
  C       0.322596     -0.306044      0.102392
  C      -0.842694     -1.076163      0.070605
  C      -2.043115     -0.463577     -0.203371
  O      -3.243343     -1.122423     -0.258342
  C      -2.144765      0.913178     -0.456831
  O      -3.284944      1.500190     -0.722363
  C      -0.953316      1.658740     -0.416167
  O      -1.039050      2.999437     -0.660606
  C       0.261715      1.069128     -0.143101
  H       3.908752     -1.203446      1.673801
  H       4.627632      0.063498      0.644045
  H       4.153167     -1.501293     -0.068963
  H      -0.805651     -2.142468      0.259917
  H      -3.152150     -2.065884     -0.082086
  H      -1.977455      3.183131     -0.825802
  H       1.155265      1.679051     -0.122734
  O      -6.225735     -1.294545     -0.737622
  H      -6.224973     -1.752084      0.112538
  H      -7.137313     -1.007175     -0.873917
  O      -6.366373      1.740086     -1.153206
  H      -6.610737      1.743544     -2.087215
  H      -6.059931      2.636478     -0.966755
  O      -5.236372      0.513454      1.348021
  H      -4.582419      1.115212      1.725047
  H      -6.093096      0.920018      1.527152
  O      -4.694078     -0.095743     -2.841023
  H      -4.810904     -1.034973     -3.029278
  H      -3.801244      0.118179     -3.139440
33
Coordinates from ORCA-job zn_P1_cplx E -2769.437596768826
  Zn     -4.877177      0.308534     -0.752763
  C       3.906095     -0.751984      0.676368
  O       2.638566     -0.157893      0.399839
  C       1.588011     -0.983769      0.396121
  O       1.699213     -2.177289      0.616676
  C       0.321354     -0.306008      0.102645
  C      -0.844203     -1.075366      0.072008
  C      -2.044624     -0.461981     -0.201041
  O      -3.245010     -1.121264     -0.253838
  C      -2.146811      0.914731     -0.454998
  O      -3.286571      1.502769     -0.719096
  C      -0.954295      1.658976     -0.415307
  O      -1.038486      3.000230     -0.659843
  C       0.260760      1.068988     -0.143214
  H       3.910417     -1.203512      1.669045
  H       4.628164      0.060372      0.635154
  H       4.149591     -1.504386     -0.074599
  H      -0.810782     -2.141780      0.261294
  H      -3.153108     -2.064776     -0.078222
  H      -1.976937      3.184766     -0.823832
  H       1.154046      1.679300     -0.123854
  O      -6.219944     -1.300323     -0.734317
  H      -6.230353     -1.747295      0.121338
  H      -7.130884     -1.020287     -0.888797
  O      -6.366070      1.736806     -1.157215
  H      -6.596671      1.747065     -2.094675
  H      -6.066773      2.632875     -0.958167
  O      -5.240832      0.517396      1.349470
  H      -4.594834      1.129044      1.724270
  H      -6.102880      0.913712      1.526057
  O      -4.683925     -0.094726     -2.838594
  H      -4.797403     -1.034490     -3.026535
  H      -3.789978      0.120491     -3.132803
33
Coordinates from ORCA-job zn_P1_cplx E -2769.437618151093
  Zn     -4.876421      0.309692     -0.748526
  C       3.905239     -0.754166      0.669837
  O       2.637610     -0.159395      0.395605
  C       1.586141     -0.984271      0.394349
  O       1.697531     -2.178216      0.613566
  C       0.319910     -0.306390      0.101805
  C      -0.846362     -1.074375      0.072909
  C      -2.047051     -0.460307     -0.198271
  O      -3.247393     -1.119940     -0.247974
  C      -2.148791      0.916468     -0.452368
  O      -3.288278      1.505700     -0.714111
  C      -0.955200      1.659726     -0.414842
  O      -1.038074      3.001108     -0.659405
  C       0.259506      1.068611     -0.144466
  H       3.910890     -1.204281      1.663185
  H       4.628032      0.057284      0.625416
  H       4.145314     -1.508469     -0.080344
  H      -0.815232     -2.140864      0.262269
  H      -3.154532     -2.063639     -0.073870
  H      -1.976594      3.186991     -0.821489
  H       1.152903      1.678832     -0.126590
  O      -6.212035     -1.307878     -0.730205
  H      -6.237757     -1.740293      0.132596
  H      -7.121838     -1.037717     -0.907559
  O      -6.365709      1.732496     -1.162869
  H      -6.576526      1.753668     -2.104840
  H      -6.077156      2.627876     -0.945711
  O      -5.247096      0.522612      1.351771
  H      -4.612094      1.147205      1.724168
  H      -6.115591      0.906114      1.525563
  O      -4.670725     -0.093538     -2.834948
  H      -4.780105     -1.033874     -3.022972
  H      -3.774853      0.122158     -3.123103
33
Coordinates from ORCA-job zn_P1_cplx E -2769.437633237085
  Zn     -4.875923      0.310738     -0.744454
  C       3.904364     -0.755408      0.665872
  O       2.636775     -0.160411      0.391670
  C       1.584811     -0.984811      0.390911
  O       1.696653     -2.178938      0.610285
  C       0.319011     -0.307149      0.099567
  C      -0.848148     -1.073815      0.072690
  C      -2.049250     -0.459482     -0.196262
  O      -3.249565     -1.118971     -0.242998
  C      -2.149660      0.917402     -0.450135
  O      -3.289282      1.507555     -0.709383
  C      -0.955582      1.660423     -0.415410
  O      -1.038269      3.001340     -0.659944
  C       0.258696      1.068030     -0.147033
  H       3.909568     -1.205569      1.659248
  H       4.627072      0.055931      0.620374
  H       4.143097     -1.511351     -0.083119
  H      -0.816373     -2.140288      0.262412
  H      -3.155839     -2.062964     -0.070947
  H      -1.976872      3.188385     -0.820031
  H       1.152657      1.677578     -0.130701
  O      -6.205171     -1.313819     -0.726502
  H      -6.244300     -1.733590      0.142110
  H      -7.113650     -1.052516     -0.923178
  O      -6.365451      1.728840     -1.168246
  H      -6.557666      1.761693     -2.113918
  H      -6.087970      2.623296     -0.933466
  O      -5.252654      0.527537      1.354022
  H      -4.626691      1.161816      1.725624
  H      -6.126083      0.900441      1.526760
  O      -4.660243     -0.092976     -2.831284
  H      -4.767332     -1.033355     -3.020836
  H      -3.763066      0.123334     -3.115122
33
Coordinates from ORCA-job zn_P1_cplx E -2769.437677418695
  Zn     -4.876282      0.311593     -0.740798
  C       3.904032     -0.756071      0.662774
  O       2.636439     -0.161104      0.387934
  C       1.584378     -0.985489      0.386657
  O       1.696624     -2.179601      0.606929
  C       0.318726     -0.307952      0.097141
  C      -0.849277     -1.073645      0.072592
  C      -2.050789     -0.459273     -0.194025
  O      -3.251350     -1.117878     -0.238079
  C      -2.149539      0.917671     -0.447586
  O      -3.289599      1.508427     -0.704551
  C      -0.955474      1.660957     -0.415892
  O      -1.038904      3.001077     -0.660544
  C       0.258559      1.067462     -0.149678
  H       3.908315     -1.207665      1.655535
  H       4.626089      0.055775      0.617968
  H       4.142980     -1.512619     -0.085567
  H      -0.814723     -2.139997      0.262869
  H      -3.157289     -2.062332     -0.068691
  H      -1.977693      3.188773     -0.818704
  H       1.153380      1.675885     -0.135011
  O      -6.199822     -1.318836     -0.723995
  H      -6.250945     -1.726639      0.149770
  H      -7.106486     -1.064481     -0.937554
  O      -6.366160      1.725813     -1.174277
  H      -6.538929      1.771671     -2.123226
  H      -6.100481      2.618837     -0.920968
  O      -5.258767      0.532212      1.356074
  H      -4.639697      1.173435      1.727490
  H      -6.135731      0.897263      1.528085
  O      -4.652194     -0.093255     -2.828132
  H      -4.758441     -1.033460     -3.019007
  H      -3.753286      0.122371     -3.106957
33
Coordinates from ORCA-job zn_P1_cplx E -2769.437673372193
  Zn     -4.877300      0.312781     -0.735864
  C       3.904105     -0.757294      0.657273
  O       2.636400     -0.162172      0.382558
  C       1.584388     -0.986617      0.381056
  O       1.696782     -2.180582      0.602362
  C       0.318519     -0.308699      0.094598
  C      -0.850358     -1.073553      0.073777
  C      -2.052290     -0.458987     -0.189638
  O      -3.253644     -1.115838     -0.229914
  C      -2.149248      0.917900     -0.443195
  O      -3.290012      1.509311     -0.697315
  C      -0.955360      1.661417     -0.415656
  O      -1.040057      3.000569     -0.660870
  C       0.258777      1.066903     -0.152589
  H       3.908136     -1.211020      1.649080
  H       4.625421      0.055215      0.613688
  H       4.143585     -1.513602     -0.091165
  H      -0.811787     -2.139655      0.265018
  H      -3.159341     -2.061050     -0.064900
  H      -1.979204      3.188546     -0.816444
  H       1.154797      1.673711     -0.140559
  O      -6.192549     -1.325458     -0.720812
  H      -6.261679     -1.715538      0.159844
  H      -7.095414     -1.081011     -0.960376
  O      -6.367685      1.721167     -1.184616
  H      -6.510085      1.787974     -2.137431
  H      -6.121822      2.611053     -0.901932
  O      -5.268781      0.539575      1.358175
  H      -4.657975      1.188568      1.729874
  H      -6.150218      0.894272      1.529132
  O      -4.641205     -0.094574     -2.823589
  H      -4.747507     -1.034356     -3.016286
  H      -3.739720      0.119973     -3.094706
33
Coordinates from ORCA-job zn_P1_cplx E -2769.437719779635
  Zn     -4.879593      0.314570     -0.728705
  C       3.905152     -0.759664      0.646448
  O       2.637080     -0.163983      0.373818
  C       1.585048     -0.988341      0.373476
  O       1.697337     -2.182041      0.596005
  C       0.318491     -0.309345      0.092415
  C      -0.851401     -1.073435      0.077874
  C      -2.053850     -0.458498     -0.180749
  O      -3.256797     -1.112080     -0.215318
  C      -2.148522      0.918132     -0.434904
  O      -3.290436      1.510164     -0.685191
  C      -0.955070      1.662010     -0.413764
  O      -1.041912      2.999808     -0.660385
  C       0.259589      1.066384     -0.155566
  H       3.910324     -1.216708      1.636728
  H       4.625647      0.053621      0.604326
  H       4.144780     -1.514741     -0.103215
  H      -0.806394     -2.139024      0.270809
  H      -3.162451     -2.058689     -0.058445
  H      -1.981746      3.187500     -0.812149
  H       1.157442      1.670619     -0.147992
  O      -6.181456     -1.335328     -0.716755
  H      -6.281205     -1.696428      0.173352
  H      -7.076004     -1.107160     -0.999432
  O      -6.370911      1.713222     -1.203612
  H      -6.461559      1.818112     -2.159397
  H      -6.163274      2.595160     -0.870152
  O      -5.286842      0.552287      1.360017
  H      -4.686346      1.210022      1.733136
  H      -6.173616      0.894368      1.528938
  O      -4.624071     -0.098017     -2.816638
  H      -4.731800     -1.036916     -3.012221
  H      -3.717967      0.113347     -3.074173
33
Coordinates from ORCA-job zn_P1_cplx E -2769.437753617765
  Zn     -4.881590      0.315027     -0.727085
  C       3.907285     -0.761164      0.640084
  O       2.638971     -0.164609      0.370460
  C       1.586943     -0.988792      0.371786
  O       1.698656     -2.182294      0.594277
  C       0.319499     -0.308593      0.093954
  C      -0.850118     -1.073585      0.082548
  C      -2.052653     -0.458632     -0.174321
  O      -3.256853     -1.109919     -0.206814
  C      -2.147218      0.917682     -0.429479
  O      -3.289990      1.508930     -0.679265
  C      -0.954543      1.662167     -0.410658
  O      -1.043122      2.999583     -0.658314
  C       0.261057      1.067003     -0.154430
  H       3.914490     -1.220454      1.629274
  H       4.627901      0.052179      0.599220
  H       4.146792     -1.513816     -0.112050
  H      -0.800965     -2.138765      0.276512
  H      -3.162993     -2.057477     -0.055438
  H      -1.983480      3.185722     -0.808924
  H       1.159699      1.670041     -0.148915
  O      -6.178163     -1.336863     -0.716553
  H      -6.291636     -1.686300      0.176551
  H      -7.067619     -1.115442     -1.019743
  O      -6.374088      1.708872     -1.216044
  H      -6.440066      1.835435     -2.171074
  H      -6.191414      2.585071     -0.854359
  O      -5.297165      0.559165      1.357951
  H      -4.693791      1.211199      1.736151
  H      -6.182694      0.903807      1.527536
  O      -4.619781     -0.102412     -2.814258
  H      -4.731955     -1.039934     -3.013163
  H      -3.711732      0.106093     -3.066838
33
Coordinates from ORCA-job zn_P1_cplx E -2769.437826848888
  Zn     -4.884275      0.315192     -0.726494
  C       3.910518     -0.763131      0.632468
  O       2.641978     -0.165358      0.367423
  C       1.589617     -0.988955      0.371983
  O       1.700467     -2.182472      0.593040
  C       0.321187     -0.307301      0.096871
  C      -0.847601     -1.073854      0.088426
  C      -2.050141     -0.458543     -0.166626
  O      -3.255819     -1.107387     -0.196446
  C      -2.146044      0.917395     -0.423258
  O      -3.289646      1.507182     -0.672596
  C      -0.953845      1.662042     -0.406470
  O      -1.043411      2.999844     -0.655185
  C       0.263064      1.067884     -0.152033
  H       3.920922     -1.223489      1.621076
  H       4.632168      0.049480      0.591746
  H       4.148599     -1.512892     -0.122977
  H      -0.796552     -2.138644      0.283310
  H      -3.162796     -2.056238     -0.052804
  H      -1.984395      3.183954     -0.804841
  H       1.161956      1.670408     -0.148470
  O      -6.174832     -1.337507     -0.717175
  H      -6.305169     -1.672718      0.178935
  H      -7.057358     -1.122215     -1.043833
  O      -6.379358      1.702289     -1.230552
  H      -6.416101      1.856435     -2.182923
  H      -6.229840      2.569682     -0.834375
  O      -5.309092      0.566030      1.353363
  H      -4.698050      1.207327      1.737233
  H      -6.190791      0.920311      1.522383
  O      -4.617089     -0.107236     -2.812342
  H      -4.735083     -1.043485     -3.013272
  H      -3.705524      0.094899     -3.057008
33
Coordinates from ORCA-job zn_P1_cplx E -2769.437883368277
  Zn     -4.886354      0.316218     -0.723865
  C       3.913620     -0.766301      0.620943
  O       2.644733     -0.167163      0.361754
  C       1.591593     -0.989668      0.371161
  O       1.701863     -2.183435      0.590121
  C       0.322431     -0.306654      0.099392
  C      -0.846031     -1.073708      0.095538
  C      -2.048693     -0.457329     -0.156373
  O      -3.255797     -1.104097     -0.180523
  C      -2.146252      0.918232     -0.415151
  O      -3.290414      1.507009     -0.662567
  C      -0.953520      1.661832     -0.401825
  O      -1.042453      3.000437     -0.651760
  C       0.264466      1.068011     -0.150363
  H       3.928110     -1.226058      1.609734
  H       4.636808      0.044959      0.577917
  H       4.148102     -1.514460     -0.137178
  H      -0.796696     -2.138281      0.291372
  H      -3.162891     -2.054544     -0.047781
  H      -1.983990      3.183784     -0.799151
  H       1.163315      1.670497     -0.149947
  O      -6.165922     -1.340905     -0.714544
  H      -6.327296     -1.651590      0.185264
  H      -7.036143     -1.140388     -1.081042
  O      -6.384782      1.690763     -1.249866
  H      -6.377239      1.886518     -2.195092
  H      -6.286110      2.542560     -0.806912
  O      -5.325186      0.576887      1.347751
  H      -4.708953      1.209925      1.736855
  H      -6.204194      0.938775      1.514438
  O      -4.607135     -0.111207     -2.807555
  H      -4.730115     -1.046245     -3.011136
  H      -3.691209      0.084549     -3.041034
33
Coordinates from ORCA-job zn_P1_cplx E -2769.437914773362
  Zn     -4.886793      0.315924     -0.724757
  C       3.916086     -0.766804      0.615934
  O       2.646683     -0.167727      0.360620
  C       1.592995     -0.989674      0.373763
  O       1.703812     -2.184007      0.589869
  C       0.323714     -0.307094      0.101912
  C      -0.844447     -1.073978      0.099217
  C      -2.047261     -0.456648     -0.151686
  O      -3.254332     -1.104137     -0.171542
  C      -2.147748      0.918793     -0.412300
  O      -3.291374      1.506726     -0.659082
  C      -0.953505      1.660555     -0.399161
  O      -1.039349      3.000873     -0.649097
  C       0.264734      1.067082     -0.148156
  H       3.933491     -1.223261      1.606192
  H       4.640529      0.043167      0.568773
  H       4.146692     -1.515416     -0.142889
  H      -0.803733     -2.138836      0.294790
  H      -3.161341     -2.055598     -0.046328
  H      -1.980844      3.185245     -0.795671
  H       1.161997      1.671787     -0.148491
  O      -6.162621     -1.340398     -0.712885
  H      -6.342036     -1.639822      0.187251
  H      -7.025835     -1.146082     -1.098834
  O      -6.389010      1.682161     -1.257541
  H      -6.361390      1.900624     -2.197242
  H      -6.318550      2.524508     -0.791723
  O      -5.331001      0.580285      1.341649
  H      -4.704472      1.201449      1.733459
  H      -6.203772      0.958447      1.505303
  O      -4.605357     -0.111669     -2.806577
  H      -4.731075     -1.046514     -3.010042
  H      -3.687221      0.078967     -3.036153
33
Coordinates from ORCA-job zn_P1_cplx E -2769.437929969642
  Zn     -4.886219      0.317463     -0.719754
  C       3.915498     -0.768108      0.610116
  O       2.645806     -0.169196      0.355049
  C       1.591898     -0.991016      0.368648
  O       1.703530     -2.185418      0.585701
  C       0.322960     -0.308910      0.099277
  C      -0.846769     -1.073243      0.100232
  C      -2.050089     -0.455371     -0.147571
  O      -3.256935     -1.102907     -0.161810
  C      -2.149039      0.920043     -0.408835
  O      -3.292529      1.509432     -0.652581
  C      -0.953757      1.660724     -0.399639
  O      -1.038572      3.000386     -0.650166
  C       0.263810      1.065461     -0.151507
  H       3.932801     -1.224549      1.600435
  H       4.639227      0.042244      0.561357
  H       4.144739     -1.518844     -0.147047
  H      -0.807795     -2.138184      0.296395
  H      -3.162780     -2.054908     -0.041720
  H      -1.979956      3.187329     -0.793742
  H       1.161439      1.669748     -0.154733
  O      -6.154016     -1.347460     -0.707467
  H      -6.359497     -1.627661      0.193434
  H      -7.007139     -1.168608     -1.122436
  O      -6.388748      1.675950     -1.264996
  H      -6.333973      1.917500     -2.197930
  H      -6.344389      2.508293     -0.778378
  O      -5.338896      0.587426      1.343406
  H      -4.720559      1.218641      1.732435
  H      -6.215935      0.957625      1.503107
  O      -4.591081     -0.110150     -2.801293
  H      -4.714052     -1.045350     -3.005088
  H      -3.671320      0.080547     -3.024319
33
Coordinates from ORCA-job zn_P1_cplx E -2769.437906715794
  Zn     -4.883519      0.315207     -0.723378
  C       3.914891     -0.764456      0.616992
  O       2.644755     -0.167379      0.359521
  C       1.591325     -0.990079      0.371836
  O       1.704953     -2.184691      0.589122
  C       0.323069     -0.310752      0.099415
  C      -0.847203     -1.073367      0.097555
  C      -2.050936     -0.456168     -0.152423
  O      -3.255369     -1.108026     -0.166381
  C      -2.151155      0.919462     -0.414137
  O      -3.293406      1.509252     -0.659357
  C      -0.954568      1.659221     -0.402110
  O      -1.036316      2.999316     -0.652289
  C       0.261849      1.063732     -0.151452
  H       3.930877     -1.217710      1.608857
  H       4.637716      0.046330      0.565209
  H       4.143418     -1.518852     -0.136745
  H      -0.817099     -2.138918      0.292724
  H      -3.159957     -2.059680     -0.044869
  H      -1.976708      3.189560     -0.797115
  H       1.157550      1.671008     -0.153107
  O      -6.159863     -1.343670     -0.707941
  H      -6.357678     -1.636585      0.190694
  H      -7.018308     -1.157016     -1.108575
  O      -6.387545      1.676804     -1.251128
  H      -6.355792      1.899354     -2.189916
  H      -6.318726      2.518771     -0.784048
  O      -5.327650      0.578913      1.342729
  H      -4.700606      1.203251      1.729256
  H      -6.198867      0.964017      1.499930
  O      -4.599068     -0.105351     -2.804618
  H      -4.719547     -1.041565     -3.006250
  H      -3.682850      0.088994     -3.039423
33
Coordinates from ORCA-job zn_P1_cplx E -2769.437939970786
  Zn     -4.884457      0.315255     -0.722892
  C       3.915635     -0.765258      0.614845
  O       2.645555     -0.167517      0.358271
  C       1.592081     -0.990043      0.371182
  O       1.705078     -2.184407      0.589340
  C       0.323453     -0.309939      0.100283
  C      -0.846702     -1.073057      0.099731
  C      -2.050472     -0.456206     -0.149807
  O      -3.255366     -1.106953     -0.163898
  C      -2.150010      0.919194     -0.411887
  O      -3.292794      1.508682     -0.657403
  C      -0.954169      1.659756     -0.401062
  O      -1.037518      2.999152     -0.652185
  C       0.262679      1.064525     -0.151042
  H       3.932292     -1.220005      1.606003
  H       4.638450      0.045627      0.563936
  H       4.144410     -1.518772     -0.139711
  H      -0.812472     -2.138335      0.295654
  H      -3.159959     -2.058844     -0.044197
  H      -1.978175      3.188332     -0.796830
  H       1.159106      1.670716     -0.153664
  O      -6.160135     -1.344274     -0.709380
  H      -6.360828     -1.634651      0.189408
  H      -7.016577     -1.158301     -1.114489
  O      -6.388567      1.676710     -1.254195
  H      -6.351364      1.903930     -2.191699
  H      -6.325248      2.516391     -0.782288
  O      -5.331035      0.580446      1.343072
  H      -4.703550      1.203554      1.730773
  H      -6.202033      0.966185      1.499678
  O      -4.598308     -0.106699     -2.804182
  H      -4.719988     -1.042616     -3.005983
  H      -3.681350      0.086347     -3.036806
33
Coordinates from ORCA-job zn_P1_cplx E -2769.437961883412
  Zn     -4.884751      0.314661     -0.722938
  C       3.916589     -0.765385      0.613213
  O       2.646429     -0.167283      0.357343
  C       1.593048     -0.989794      0.371140
  O       1.705692     -2.183823      0.590690
  C       0.324056     -0.309359      0.101481
  C      -0.846062     -1.072695      0.102588
  C      -2.050080     -0.456468     -0.146560
  O      -3.255041     -1.106896     -0.159616
  C      -2.149127      0.918580     -0.409736
  O      -3.292316      1.507835     -0.655892
  C      -0.953881      1.659853     -0.400411
  O      -1.038550      2.998431     -0.652893
  C       0.263355      1.064995     -0.150886
  H       3.934116     -1.220775      1.604054
  H       4.639252      0.045634      0.562108
  H       4.145252     -1.518956     -0.141328
  H      -0.808713     -2.137680      0.299677
  H      -3.158792     -2.059169     -0.043705
  H      -1.979341      3.187065     -0.797280
  H       1.160244      1.670537     -0.154784
  O      -6.161750     -1.343958     -0.711279
  H      -6.368135     -1.632691      0.186686
  H      -7.015033     -1.158409     -1.123068
  O      -6.389733      1.675699     -1.254993
  H      -6.349310      1.906364     -2.191526
  H      -6.330227      2.513814     -0.779832
  O      -5.333362      0.580837      1.343158
  H      -4.701752      1.198797      1.732342
  H      -6.201831      0.973017      1.497596
  O      -4.598751     -0.107032     -2.803714
  H      -4.721727     -1.042700     -3.005608
  H      -3.682105      0.085878     -3.037447
33
Coordinates from ORCA-job zn_P1_cplx E -2769.437970801338
  Zn     -4.884629      0.313475     -0.723150
  C       3.918019     -0.765043      0.611034
  O       2.647611     -0.166901      0.356103
  C       1.594328     -0.989420      0.371669
  O       1.706841     -2.183083      0.592839
  C       0.324926     -0.308937      0.103152
  C      -0.845193     -1.072293      0.106781
  C      -2.049663     -0.456811     -0.141792
  O      -3.254518     -1.107426     -0.152169
  C      -2.148456      0.917709     -0.406975
  O      -3.291891      1.506835     -0.653824
  C      -0.953567      1.659510     -0.399910
  O      -1.039258      2.997228     -0.654476
  C       0.264082      1.065156     -0.150921
  H       3.936942     -1.219919      1.602091
  H       4.640549      0.045984      0.558314
  H       4.145872     -1.519556     -0.142823
  H      -0.805665     -2.136908      0.305566
  H      -3.156562     -2.060337     -0.043069
  H      -1.980183      3.185515     -0.798373
  H       1.161220      1.670333     -0.156719
  O      -6.164477     -1.343488     -0.714094
  H      -6.381821     -1.629315      0.182123
  H      -7.012334     -1.158473     -1.137057
  O      -6.391476      1.673590     -1.254227
  H      -6.347854      1.907940     -2.189699
  H      -6.335830      2.510109     -0.775792
  O      -5.336053      0.580426      1.343389
  H      -4.697523      1.190322      1.733928
  H      -6.199868      0.984425      1.493168
  O      -4.599316     -0.106336     -2.802935
  H      -4.723168     -1.041988     -3.004215
  H      -3.683419      0.086601     -3.039362
33
Coordinates from ORCA-job zn_P1_cplx E -2769.437972742542
  Zn     -4.883822      0.312340     -0.722844
  C       3.919141     -0.764589      0.608975
  O       2.648491     -0.166688      0.354704
  C       1.595250     -0.989163      0.372300
  O       1.707839     -2.182545      0.594730
  C       0.325554     -0.308825      0.104254
  C      -0.844571     -1.072070      0.110712
  C      -2.049478     -0.457007     -0.137065
  O      -3.254345     -1.108025     -0.143610
  C      -2.148328      0.916989     -0.404498
  O      -3.291800      1.506253     -0.651391
  C      -0.953404      1.658808     -0.400115
  O      -1.039515      2.996003     -0.656846
  C       0.264597      1.064898     -0.151783
  H       3.939370     -1.217732      1.600807
  H       4.641762      0.046196      0.553844
  H       4.145865     -1.520518     -0.143798
  H      -0.804372     -2.136328      0.311317
  H      -3.154252     -2.061595     -0.042347
  H      -1.980627      3.184014     -0.799894
  H       1.161807      1.669953     -0.159659
  O      -6.166455     -1.343178     -0.716361
  H      -6.397264     -1.624928      0.177688
  H      -7.007873     -1.160038     -1.152729
  O      -6.392595      1.671101     -1.252354
  H      -6.346850      1.908030     -2.187053
  H      -6.340080      2.506493     -0.771604
  O      -5.338534      0.579912      1.344085
  H      -4.694183      1.182809      1.735875
  H      -6.198141      0.994470      1.488938
  O      -4.598712     -0.104931     -2.801299
  H      -4.722646     -1.040590     -3.002628
  H      -3.684163      0.089407     -3.041775
33
Coordinates from ORCA-job zn_P1_cplx E -2769.437976919400
  Zn     -4.882722      0.311327     -0.721883
  C       3.920071     -0.764371      0.606206
  O       2.649197     -0.166770      0.352751
  C       1.595817     -0.989026      0.372693
  O       1.708574     -2.182276      0.595768
  C       0.325926     -0.308813      0.104998
  C      -0.844227     -1.071876      0.114608
  C      -2.049465     -0.456861     -0.132176
  O      -3.254597     -1.108103     -0.134344
  C      -2.148558      0.916645     -0.401827
  O      -3.291935      1.506149     -0.648151
  C      -0.953312      1.658123     -0.400351
  O      -1.039464      2.995126     -0.659140
  C       0.264979      1.064495     -0.152938
  H       3.941564     -1.215267      1.599041
  H       4.643009      0.045957      0.548423
  H       4.145362     -1.521654     -0.145628
  H      -0.804291     -2.135784      0.316950
  H      -3.152469     -2.062337     -0.041465
  H      -1.980894      3.182681     -0.800980
  H       1.162212      1.669437     -0.163008
  O      -6.167484     -1.343666     -0.718578
  H      -6.413112     -1.619369      0.173337
  H      -7.001901     -1.162799     -1.169139
  O      -6.393161      1.668832     -1.250251
  H      -6.345909      1.906729     -2.184611
  H      -6.342412      2.503732     -0.768463
  O      -5.341727      0.579302      1.345482
  H      -4.694247      1.178493      1.737786
  H      -6.198553      1.001391      1.484950
  O      -4.596408     -0.103453     -2.798951
  H      -4.719295     -1.039302     -3.000222
  H      -3.682904      0.092236     -3.042306
33
Coordinates from ORCA-job zn_P1_cplx E -2769.437988409480
  Zn     -4.881402      0.310796     -0.720384
  C       3.920405     -0.764556      0.603518
  O       2.649407     -0.167130      0.350773
  C       1.595803     -0.989081      0.372628
  O       1.708685     -2.182300      0.595890
  C       0.325838     -0.308849      0.105224
  C      -0.844376     -1.071730      0.117428
  C      -2.049702     -0.456379     -0.128416
  O      -3.255346     -1.107446     -0.127051
  C      -2.149014      0.916822     -0.399612
  O      -3.292309      1.506565     -0.644910
  C      -0.953357      1.657739     -0.400565
  O      -1.039350      2.994806     -0.660841
  C       0.265098      1.064131     -0.154135
  H       3.942783     -1.213591      1.597173
  H       4.643727      0.045310      0.543817
  H       4.144563     -1.522617     -0.147852
  H      -0.805035     -2.135388      0.321022
  H      -3.151935     -2.062194     -0.040798
  H      -1.981125      3.181832     -0.801422
  H       1.162442      1.668834     -0.166017
  O      -6.166937     -1.344452     -0.719946
  H      -6.423664     -1.614438      0.170568
  H      -6.996019     -1.165980     -1.181256
  O      -6.392447      1.667721     -1.248588
  H      -6.346009      1.903673     -2.183466
  H      -6.340808      2.503396     -0.768273
  O      -5.344761      0.578935      1.347172
  H      -4.698134      1.178676      1.740071
  H      -6.201662      1.002023      1.483182
  O      -4.592943     -0.102710     -2.796212
  H      -4.714357     -1.038563     -2.998574
  H      -3.680398      0.095072     -3.041574
33
Coordinates from ORCA-job zn_P1_cplx E -2769.437988013588
  Zn     -4.879619      0.310252     -0.717611
  C       3.920817     -0.765446      0.598429
  O       2.649685     -0.167902      0.347213
  C       1.595621     -0.989260      0.371744
  O       1.708563     -2.182514      0.595014
  C       0.325569     -0.308770      0.105530
  C      -0.844860     -1.071242      0.121470
  C      -2.050182     -0.455159     -0.122684
  O      -3.256757     -1.105414     -0.116630
  C      -2.149651      0.917697     -0.395670
  O      -3.292968      1.507591     -0.639174
  C      -0.953409      1.657754     -0.400084
  O      -1.039174      2.994935     -0.662159
  C       0.265204      1.063854     -0.155447
  H       3.944471     -1.212779      1.592814
  H       4.644669      0.043823      0.536694
  H       4.143331     -1.523993     -0.152920
  H      -0.806262     -2.134591      0.326491
  H      -3.152381     -2.060906     -0.039913
  H      -1.981464      3.181321     -0.800660
  H       1.162857      1.667970     -0.169981
  O      -6.164857     -1.346409     -0.721740
  H      -6.436468     -1.606308      0.167365
  H      -6.986494     -1.171358     -1.197571
  O      -6.390822      1.666872     -1.247529
  H      -6.345679      1.898739     -2.183489
  H      -6.336744      2.504260     -0.770501
  O      -5.350676      0.578710      1.349840
  H      -4.708624      1.182915      1.743446
  H      -6.209893      0.998588      1.481346
  O      -4.586402     -0.102808     -2.791811
  H      -4.705400     -1.038618     -2.995960
  H      -3.674337      0.097125     -3.037286
33
Coordinates from ORCA-job zn_P1_cplx E -2769.438006942881
  Zn     -4.877694      0.309801     -0.713855
  C       3.921455     -0.766965      0.591287
  O       2.650157     -0.168934      0.342310
  C       1.595585     -0.989593      0.369879
  O       1.708476     -2.182840      0.593370
  C       0.325358     -0.308606      0.106041
  C      -0.845513     -1.070348      0.126526
  C      -2.050825     -0.453340     -0.115127
  O      -3.258524     -1.102197     -0.103625
  C      -2.150230      0.919160     -0.389938
  O      -3.293832      1.509013     -0.631175
  C      -0.953395      1.658223     -0.398646
  O      -1.038949      2.995331     -0.662657
  C       0.265377      1.063699     -0.156604
  H       3.946721     -1.213477      1.585987
  H       4.645737      0.041815      0.527845
  H       4.142143     -1.525632     -0.160464
  H      -0.807446     -2.133387      0.333048
  H      -3.153762     -2.058573     -0.039034
  H      -1.981720      3.181503     -0.798477
  H       1.163538      1.666943     -0.174519
  O      -6.161214     -1.348928     -0.723027
  H      -6.450972     -1.594846      0.164343
  H      -6.972972     -1.179538     -1.217568
  O      -6.388634      1.665852     -1.248450
  H      -6.343204      1.894567     -2.185176
  H      -6.333841      2.504607     -0.773944
  O      -5.359484      0.579418      1.352418
  H      -4.723965      1.189257      1.747974
  H      -6.222288      0.993337      1.479485
  O      -4.577745     -0.104313     -2.786113
  H      -4.694990     -1.039662     -2.993444
  H      -3.665684      0.097578     -3.030096
33
Coordinates from ORCA-job zn_P1_cplx E -2769.438015418434
  Zn     -4.876126      0.309346     -0.710061
  C       3.922535     -0.768851      0.582623
  O       2.650978     -0.169993      0.336750
  C       1.595908     -0.989919      0.367608
  O       1.708618     -2.183115      0.591581
  C       0.325408     -0.308279      0.107237
  C      -0.846069     -1.069027      0.132215
  C      -2.051388     -0.451114     -0.106600
  O      -3.260097     -1.098255     -0.090159
  C      -2.150580      0.921113     -0.382880
  O      -3.294705      1.510578     -0.622036
  C      -0.953272      1.659299     -0.395662
  O      -1.038496      2.996144     -0.661280
  C       0.265610      1.063862     -0.156575
  H       3.949883     -1.215717      1.577095
  H       4.647017      0.039645      0.517781
  H       4.141131     -1.527332     -0.169924
  H      -0.808473     -2.131865      0.339828
  H      -3.156177     -2.055531     -0.038441
  H      -1.981516      3.182946     -0.794463
  H       1.164296      1.666221     -0.177910
  O      -6.156989     -1.351451     -0.723728
  H      -6.464721     -1.581783      0.161795
  H      -6.957995     -1.188706     -1.237630
  O      -6.386362      1.665129     -1.251579
  H      -6.339695      1.891585     -2.188810
  H      -6.331829      2.505033     -0.779073
  O      -5.370264      0.580550      1.353924
  H      -4.741480      1.195305      1.752619
  H      -6.236688      0.988023      1.477194
  O      -4.568915     -0.107460     -2.780540
  H      -4.686040     -1.041943     -2.991670
  H      -3.655845      0.094489     -3.020653
33
Coordinates from ORCA-job zn_P1_cplx E -2769.438032564697
  Zn     -4.874877      0.308864     -0.706320
  C       3.923957     -0.770809      0.573241
  O       2.652079     -0.170902      0.330717
  C       1.596670     -0.990215      0.364741
  O       1.709106     -2.183228      0.589796
  C       0.325798     -0.307888      0.108693
  C      -0.846500     -1.067264      0.137730
  C      -2.051938     -0.448574     -0.097816
  O      -3.261317     -1.093877     -0.077099
  C      -2.150686      0.923540     -0.374884
  O      -3.295602      1.512481     -0.612072
  C      -0.953044      1.660987     -0.391502
  O      -1.037635      2.997246     -0.658158
  C       0.265861      1.064285     -0.155691
  H       3.953616     -1.219008      1.567045
  H       4.648299      0.037673      0.507101
  H       4.140384     -1.529365     -0.179877
  H      -0.809407     -2.130067      0.345868
  H      -3.160055     -2.052059     -0.038580
  H      -1.980463      3.186155     -0.788945
  H       1.165010      1.665913     -0.180358
  O      -6.152580     -1.353718     -0.722754
  H      -6.477987     -1.566756      0.160779
  H      -6.941960     -1.199169     -1.256572
  O      -6.383607      1.665171     -1.256280
  H      -6.335512      1.889627     -2.193948
  H      -6.328710      2.506393     -0.786118
  O      -5.382382      0.581389      1.354058
  H      -4.760608      1.200486      1.756968
  H      -6.252913      0.980848      1.474439
  O      -4.560488     -0.112036     -2.775506
  H      -4.679430     -1.045281     -2.990769
  H      -3.645412      0.088086     -3.009348
33
Coordinates from ORCA-job zn_P1_cplx E -2769.438052202017
  Zn     -4.872808      0.307857     -0.701175
  C       3.925925     -0.773202      0.560145
  O       2.653553     -0.172161      0.322344
  C       1.597634     -0.990520      0.361689
  O       1.709757     -2.183250      0.588312
  C       0.326251     -0.307304      0.111021
  C      -0.846954     -1.064983      0.146482
  C      -2.052690     -0.445362     -0.084665
  O      -3.262913     -1.088737     -0.056631
  C      -2.150981      0.926344     -0.363726
  O      -3.296728      1.514864     -0.598333
  C      -0.952828      1.662725     -0.386262
  O      -1.036695      2.998208     -0.655118
  C       0.266265      1.064679     -0.154891
  H       3.959312     -1.221462      1.553805
  H       4.650370      0.034867      0.490577
  H       4.138651     -1.532761     -0.193032
  H      -0.810434     -2.127558      0.356061
  H      -3.163378     -2.047701     -0.038324
  H      -1.979451      3.189340     -0.782488
  H       1.165960      1.665337     -0.184618
  O      -6.147910     -1.356573     -0.722014
  H      -6.502174     -1.546316      0.155687
  H      -6.918230     -1.214769     -1.286210
  O      -6.380236      1.664234     -1.261181
  H      -6.329495      1.886768     -2.199194
  H      -6.325961      2.506775     -0.793247
  O      -5.398655      0.582364      1.354629
  H      -4.783833      1.204826      1.762878
  H      -6.272633      0.975966      1.468818
  O      -4.549073     -0.116755     -2.768235
  H      -4.669783     -1.048555     -2.988419
  H      -3.632170      0.081742     -2.996109
33
Coordinates from ORCA-job zn_P1_cplx E -2769.438066064357
  Zn     -4.870628      0.306336     -0.695605
  C       3.928903     -0.775634      0.543596
  O       2.655763     -0.173311      0.312089
  C       1.599448     -0.990575      0.358773
  O       1.711147     -2.182745      0.588119
  C       0.327287     -0.306319      0.114908
  C      -0.846898     -1.061866      0.157790
  C      -2.053349     -0.441666     -0.068025
  O      -3.263833     -1.083592     -0.031323
  C      -2.151140      0.929579     -0.349238
  O      -3.297862      1.517965     -0.581454
  C      -0.952580      1.665025     -0.378473
  O      -1.035260      2.999257     -0.649560
  C       0.266852      1.065513     -0.152436
  H       3.967988     -1.222878      1.537534
  H       4.653386      0.031737      0.467610
  H       4.135965     -1.538137     -0.208220
  H      -0.810908     -2.124266      0.368812
  H      -3.167559     -2.043046     -0.038128
  H      -1.977418      3.194441     -0.773607
  H       1.166845      1.665533     -0.188092
  O      -6.144746     -1.358552     -0.718794
  H      -6.536376     -1.521723      0.148319
  H      -6.888324     -1.237635     -1.322125
  O      -6.375726      1.663816     -1.267741
  H      -6.321697      1.884987     -2.205920
  H      -6.322016      2.507805     -0.802230
  O      -5.418904      0.582780      1.353031
  H      -4.808051      1.203523      1.769526
  H      -6.294214      0.975319      1.459388
  O      -4.537362     -0.122534     -2.760942
  H      -4.662971     -1.052254     -2.986677
  H      -3.618099      0.072045     -2.982329
33
Coordinates from ORCA-job zn_P1_cplx E -2769.438078494449
  Zn     -4.865840      0.304397     -0.683548
  C       3.931775     -0.781278      0.515185
  O       2.657842     -0.176467      0.293929
  C       1.600330     -0.991229      0.352781
  O       1.711239     -2.182827      0.585208
  C       0.327362     -0.304745      0.119649
  C      -0.848352     -1.056728      0.176908
  C      -2.055595     -0.434566     -0.039230
  O      -3.267393     -1.074011      0.015041
  C      -2.152471      0.935518     -0.325287
  O      -3.300499      1.523810     -0.551787
  C      -0.952787      1.668483     -0.367720
  O      -1.034075      3.001258     -0.643548
  C       0.267132      1.066494     -0.151245
  H       3.979462     -1.226025      1.509891
  H       4.657098      0.024294      0.429384
  H       4.129575     -1.547422     -0.235442
  H      -0.813421     -2.118490      0.391504
  H      -3.171444     -2.032148     -0.037298
  H      -1.976189      3.200481     -0.760212
  H       1.167997      1.664549     -0.197885
  O      -6.135844     -1.364507     -0.714313
  H      -6.595484     -1.479707      0.126703
  H      -6.827190     -1.282597     -1.382722
  O      -6.367715      1.660765     -1.277180
  H      -6.304722      1.880451     -2.215165
  H      -6.318526      2.506173     -0.813637
  O      -5.453062      0.586096      1.353658
  H      -4.853989      1.211271      1.780362
  H      -6.332878      0.972320      1.444101
  O      -4.512621     -0.129728     -2.744448
  H      -4.641674     -1.056633     -2.979283
  H      -3.590376      0.061672     -2.955776
33
Coordinates from ORCA-job zn_P1_cplx E -2769.438107796673
  Zn     -4.865483      0.304211     -0.678940
  C       3.934738     -0.781591      0.502218
  O       2.660257     -0.176407      0.285700
  C       1.602742     -0.989948      0.352161
  O       1.712968     -2.180790      0.587402
  C       0.328952     -0.302564      0.121460
  C      -0.846142     -1.053862      0.182563
  C      -2.055405     -0.432576     -0.027975
  O      -3.264803     -1.075230      0.035591
  C      -2.153610      0.937775     -0.313135
  O      -3.301328      1.530808     -0.536756
  C      -0.953585      1.670861     -0.359692
  O      -1.032531      3.003358     -0.632100
  C       0.267643      1.068821     -0.148190
  H       3.990147     -1.215888      1.501297
  H       4.661448      0.020669      0.400257
  H       4.122978     -1.558454     -0.239850
  H      -0.810862     -2.115754      0.396869
  H      -3.180361     -2.033139     -0.037726
  H      -1.973057      3.208991     -0.747710
  H       1.167088      1.668934     -0.197187
  O      -6.143223     -1.361739     -0.694122
  H      -6.655595     -1.456594      0.118112
  H      -6.790390     -1.341491     -1.410589
  O      -6.358306      1.665589     -1.283007
  H      -6.286455      1.888249     -2.219567
  H      -6.308026      2.510314     -0.818083
  O      -5.469735      0.582183      1.344733
  H      -4.859846      1.190674      1.779903
  H      -6.341557      0.987922      1.424385
  O      -4.507574     -0.128452     -2.743697
  H      -4.651909     -1.054004     -2.974865
  H      -3.581514      0.048050     -2.950883
33
Coordinates from ORCA-job zn_P1_cplx E -2769.438138187596
  Zn     -4.864436      0.304657     -0.677172
  C       3.932215     -0.782105      0.508074
  O       2.658397     -0.177290      0.287781
  C       1.600410     -0.990942      0.350649
  O       1.710841     -2.182413      0.583451
  C       0.327276     -0.303630      0.117769
  C      -0.847849     -1.055564      0.180062
  C      -2.055900     -0.432836     -0.031486
  O      -3.267615     -1.073488      0.032358
  C      -2.153877      0.937106     -0.318070
  O      -3.301539      1.528675     -0.539568
  C      -0.953442      1.669113     -0.366511
  O      -1.034305      3.002336     -0.642039
  C       0.267399      1.067216     -0.154170
  H       3.982795     -1.218980      1.506177
  H       4.659195      0.021047      0.413892
  H       4.125631     -1.553504     -0.238262
  H      -0.812045     -2.116898      0.396095
  H      -3.175256     -2.030782     -0.040206
  H      -1.976754      3.201912     -0.755716
  H       1.168003      1.665291     -0.204003
  O      -6.137585     -1.365168     -0.703285
  H      -6.638471     -1.461183      0.115888
  H      -6.796546     -1.322964     -1.407726
  O      -6.360817      1.663206     -1.276856
  H      -6.292791      1.880945     -2.214869
  H      -6.308940      2.508922     -0.814179
  O      -5.464329      0.583852      1.353332
  H      -4.864070      1.206576      1.782041
  H      -6.342101      0.976915      1.433716
  O      -4.505049     -0.126318     -2.738895
  H      -4.639710     -1.053237     -2.970956
  H      -3.581073      0.058457     -2.948740
33
Coordinates from ORCA-job zn_P1_cplx E -2769.438166104187
  Zn     -4.865465      0.305835     -0.678067
  C       3.930891     -0.780904      0.515124
  O       2.657404     -0.176795      0.291843
  C       1.599513     -0.991021      0.350982
  O       1.710285     -2.182931      0.581662
  C       0.326693     -0.304124      0.115249
  C      -0.847958     -1.057253      0.175214
  C      -2.055547     -0.434539     -0.038590
  O      -3.267708     -1.075275      0.021899
  C      -2.153978      0.935642     -0.324073
  O      -3.301099      1.527664     -0.545402
  C      -0.953571      1.667882     -0.370435
  O      -1.035625      3.001807     -0.645562
  C       0.267233      1.066738     -0.156290
  H       3.978523     -1.218281      1.513118
  H       4.657977      0.022663      0.424674
  H       4.127434     -1.550126     -0.232595
  H      -0.811101     -2.118530      0.390860
  H      -3.174524     -2.033125     -0.041676
  H      -1.978882      3.198018     -0.759948
  H       1.168012      1.664598     -0.204114
  O      -6.138225     -1.364722     -0.703866
  H      -6.628187     -1.468411      0.121068
  H      -6.807791     -1.316634     -1.397803
  O      -6.361299      1.664249     -1.274152
  H      -6.293687      1.881363     -2.212315
  H      -6.308646      2.509437     -0.810722
  O      -5.456575      0.583561      1.355586
  H      -4.856709      1.209558      1.780216
  H      -6.335160      0.974459      1.438749
  O      -4.508340     -0.123226     -2.740241
  H      -4.641081     -1.051316     -2.969063
  H      -3.585144      0.062667     -2.952751
33
Coordinates from ORCA-job zn_P1_cplx E -2769.438159790715
  Zn     -4.865274      0.306851     -0.674222
  C       3.930425     -0.781881      0.511769
  O       2.657021     -0.177366      0.289608
  C       1.598835     -0.991312      0.348798
  O       1.709672     -2.183572      0.577830
  C       0.326057     -0.303919      0.114373
  C      -0.848615     -1.056998      0.176622
  C      -2.056063     -0.433627     -0.035796
  O      -3.268923     -1.073741      0.027313
  C      -2.154617      0.936459     -0.321319
  O      -3.301541      1.529134     -0.540472
  C      -0.953903      1.668168     -0.369763
  O      -1.036873      3.002367     -0.645396
  C       0.267031      1.066889     -0.157409
  H       3.978238     -1.219524      1.509613
  H       4.657895      0.021466      0.421958
  H       4.126691     -1.549840     -0.237287
  H      -0.810889     -2.118080      0.392695
  H      -3.175489     -2.031057     -0.043553
  H      -1.980933      3.196554     -0.757772
  H       1.168249      1.663895     -0.206739
  O      -6.136111     -1.365855     -0.700376
  H      -6.640373     -1.460086      0.117161
  H      -6.793965     -1.333195     -1.406387
  O      -6.357804      1.665108     -1.276461
  H      -6.285978      1.881583     -2.214426
  H      -6.306909      2.510031     -0.812427
  O      -5.461450      0.585356      1.357356
  H      -4.865816      1.215261      1.782251
  H      -6.342174      0.972055      1.438172
  O      -4.502967     -0.122859     -2.735620
  H      -4.636457     -1.050986     -2.964047
  H      -3.579325      0.061649     -2.947471
33
Coordinates from ORCA-job zn_P1_cplx E -2769.438173255744
  Zn     -4.866368      0.307147     -0.674372
  C       3.930696     -0.781073      0.513074
  O       2.657197     -0.176708      0.291065
  C       1.599218     -0.991074      0.348952
  O       1.710360     -2.183520      0.576936
  C       0.326371     -0.303906      0.114400
  C      -0.848124     -1.057446      0.175308
  C      -2.055601     -0.434336     -0.037613
  O      -3.268378     -1.074476      0.023918
  C      -2.154371      0.935926     -0.322207
  O      -3.301119      1.528671     -0.541716
  C      -0.953823      1.668065     -0.369358
  O      -1.037501      3.002423     -0.644210
  C       0.267154      1.067085     -0.156616
  H       3.978173     -1.220020      1.510357
  H       4.657905      0.022683      0.424737
  H       4.127675     -1.547873     -0.236983
  H      -0.809803     -2.118632      0.390725
  H      -3.175824     -2.031981     -0.045375
  H      -1.981769      3.195651     -0.756904
  H       1.168343      1.664203     -0.205002
  O      -6.137943     -1.364707     -0.699030
  H      -6.640981     -1.459863      0.119145
  H      -6.796842     -1.335091     -1.404214
  O      -6.356888      1.666861     -1.277024
  H      -6.285400      1.881662     -2.215401
  H      -6.303912      2.512332     -0.814232
  O      -5.460228      0.584920      1.357183
  H      -4.862878      1.213209      1.782063
  H      -6.339979      0.973724      1.438598
  O      -4.505430     -0.122846     -2.736301
  H      -4.640812     -1.051240     -2.962521
  H      -3.581454      0.059155     -2.948806
33
Coordinates from ORCA-job zn_P1_cplx E -2769.438181689397
  Zn     -4.867962      0.307330     -0.673913
  C       3.931312     -0.780043      0.514031
  O       2.657623     -0.175768      0.292494
  C       1.599990     -0.990772      0.348582
  O       1.711610     -2.183436      0.575284
  C       0.327008     -0.303953      0.114552
  C      -0.847414     -1.057818      0.173815
  C      -2.055000     -0.435020     -0.039156
  O      -3.267674     -1.074978      0.020711
  C      -2.153910      0.935509     -0.322453
  O      -3.300672      1.527865     -0.542296
  C      -0.953619      1.668222     -0.368067
  O      -1.038163      3.002661     -0.641838
  C       0.267326      1.067403     -0.155168
  H       3.978350     -1.221790      1.510091
  H       4.657931      0.024520      0.428275
  H       4.129359     -1.544926     -0.237716
  H      -0.808805     -2.119240      0.388194
  H      -3.175988     -2.032511     -0.049175
  H      -1.982570      3.195151     -0.754755
  H       1.168476      1.664702     -0.202480
  O      -6.139904     -1.362984     -0.696910
  H      -6.643116     -1.456573      0.121302
  H      -6.798103     -1.339220     -1.402952
  O      -6.355084      1.669390     -1.278568
  H      -6.284505      1.880970     -2.217757
  H      -6.298740      2.516232     -0.818678
  O      -5.460076      0.584637      1.356972
  H      -4.860656      1.210002      1.783241
  H      -6.338626      0.975921      1.439379
  O      -4.508723     -0.124233     -2.736163
  H      -4.647634     -1.052589     -2.960346
  H      -3.584377      0.054266     -2.949953
33
Coordinates from ORCA-job zn_P1_cplx E -2769.438183083652
  Zn     -4.868778      0.307180     -0.673600
  C       3.931573     -0.779558      0.514755
  O       2.657832     -0.175380      0.293035
  C       1.600344     -0.990653      0.348323
  O       1.712155     -2.183382      0.574691
  C       0.327330     -0.304050      0.114370
  C      -0.847109     -1.057917      0.172979
  C      -2.054755     -0.435239     -0.039938
  O      -3.267360     -1.075192      0.019457
  C      -2.153680      0.935406     -0.322772
  O      -3.300581      1.527317     -0.542651
  C      -0.953488      1.668333     -0.367769
  O      -1.038135      3.002792     -0.641110
  C       0.267390      1.067471     -0.154787
  H       3.978136     -1.222599      1.510261
  H       4.657896      0.025393      0.430294
  H       4.130279     -1.543703     -0.237581
  H      -0.808919     -2.119467      0.386925
  H      -3.175453     -2.032621     -0.051593
  H      -1.982485      3.195392     -0.754188
  H       1.168467      1.664944     -0.201619
  O      -6.140451     -1.362493     -0.696468
  H      -6.643715     -1.454397      0.121882
  H      -6.798406     -1.340015     -1.402765
  O      -6.354642      1.670349     -1.278723
  H      -6.284726      1.880280     -2.218349
  H      -6.296515      2.518011     -0.820537
  O      -5.459919      0.584304      1.357284
  H      -4.859609      1.208416      1.784123
  H      -6.337903      0.976770      1.440083
  O      -4.510456     -0.125220     -2.735849
  H      -4.650605     -1.053570     -2.959229
  H      -3.586045      0.052025     -2.950356
33
Coordinates from ORCA-job zn_P1_cplx E -2769.438188258362
  Zn     -4.869321      0.306934     -0.673269
  C       3.931557     -0.779177      0.515660
  O       2.657831     -0.175178      0.293312
  C       1.600443     -0.990600      0.348126
  O       1.712322     -2.183322      0.574511
  C       0.327430     -0.304147      0.113924
  C      -0.847010     -1.057972      0.172230
  C      -2.054703     -0.435357     -0.040692
  O      -3.267224     -1.075528      0.018699
  C      -2.153631      0.935357     -0.323368
  O      -3.300696      1.526921     -0.543147
  C      -0.953493      1.668363     -0.368042
  O      -1.037902      3.002835     -0.641159
  C       0.267340      1.067438     -0.154943
  H       3.977601     -1.222634      1.511008
  H       4.657738      0.025954      0.431837
  H       4.130816     -1.543194     -0.236668
  H      -0.809409     -2.119603      0.385989
  H      -3.174635     -2.032800     -0.053707
  H      -1.982094      3.195916     -0.754441
  H       1.168316      1.665108     -0.201480
  O      -6.140533     -1.362364     -0.696327
  H      -6.644236     -1.452444      0.121948
  H      -6.798050     -1.340276     -1.403037
  O      -6.354431      1.670960     -1.278016
  H      -6.285345      1.879475     -2.218035
  H      -6.294692      2.519360     -0.821381
  O      -5.459404      0.583832      1.357887
  H      -4.858476      1.207109      1.785078
  H      -6.337043      0.976999      1.440992
  O      -4.511659     -0.125943     -2.735408
  H      -4.652254     -1.054299     -2.958471
  H      -3.587492      0.051203     -2.951033
33
Coordinates from ORCA-job zn_P1_cplx E -2769.438188279978
  Zn     -4.869702      0.306702     -0.673221
  C       3.931389     -0.778900      0.516636
  O       2.657725     -0.175094      0.293512
  C       1.600368     -0.990531      0.348273
  O       1.712211     -2.183188      0.574980
  C       0.327369     -0.304161      0.113546
  C      -0.847019     -1.058017      0.171646
  C      -2.054744     -0.435488     -0.041527
  O      -3.267122     -1.076052      0.017887
  C      -2.153726      0.935245     -0.324210
  O      -3.300881      1.526687     -0.543974
  C      -0.953616      1.668286     -0.368670
  O      -1.037671      3.002760     -0.641749
  C       0.267224      1.067385     -0.155334
  H       3.977062     -1.221859      1.512229
  H       4.657600      0.026179      0.432648
  H       4.130922     -1.543371     -0.235163
  H      -0.809774     -2.119658      0.385425
  H      -3.173838     -2.033215     -0.055053
  H      -1.981690      3.196358     -0.755334
  H       1.168078      1.665253     -0.201674
  O      -6.140599     -1.362457     -0.696373
  H      -6.644558     -1.451523      0.121868
  H      -6.797979     -1.340026     -1.403210
  O      -6.354514      1.671417     -1.276817
  H      -6.286042      1.879262     -2.217043
  H      -6.293702      2.520181     -0.820977
  O      -5.458411      0.583219      1.358453
  H      -4.856855      1.205873      1.785662
  H      -6.335720      0.977047      1.441884
  O      -4.512522     -0.126191     -2.735391
  H      -4.652907     -1.054613     -2.958297
  H      -3.588695      0.051416     -2.952053
33
Coordinates from ORCA-job zn_P1_cplx E -2769.438188062405
  Zn     -4.870114      0.306538     -0.673316
  C       3.931116     -0.778655      0.517407
  O       2.657490     -0.175038      0.293692
  C       1.600145     -0.990449      0.348624
  O       1.711916     -2.183027      0.575712
  C       0.327156     -0.304119      0.113329
  C      -0.847147     -1.058084      0.171254
  C      -2.054886     -0.435665     -0.042357
  O      -3.267092     -1.076690      0.016981
  C      -2.153954      0.935057     -0.325137
  O      -3.301118      1.526529     -0.545045
  C      -0.953873      1.668133     -0.369340
  O      -1.037598      3.002618     -0.642388
  C       0.267015      1.067342     -0.155682
  H       3.976652     -1.220782      1.513382
  H       4.657414      0.026292      0.432882
  H       4.130724     -1.543721     -0.233763
  H      -0.809947     -2.119689      0.385162
  H      -3.173175     -2.033796     -0.055874
  H      -1.981468      3.196642     -0.756274
  H       1.167754      1.665388     -0.201839
  O      -6.140635     -1.362637     -0.696281
  H      -6.645245     -1.450686      0.121688
  H      -6.797543     -1.340139     -1.403564
  O      -6.354581      1.671937     -1.275655
  H      -6.286146      1.879791     -2.215887
  H      -6.293340      2.520694     -0.819856
  O      -5.457193      0.582662      1.358894
  H      -4.854983      1.204777      1.785950
  H      -6.334185      0.977099      1.442748
  O      -4.513049     -0.126341     -2.735585
  H      -4.652948     -1.054881     -2.958320
  H      -3.589502      0.051827     -2.952965
33
Coordinates from ORCA-job zn_P1_cplx E -2769.438186804767
  Zn     -4.870463      0.306417     -0.673536
  C       3.930881     -0.778451      0.517822
  O       2.657259     -0.174937      0.293912
  C       1.599926     -0.990326      0.349051
  O       1.711657     -2.182842      0.576409
  C       0.326931     -0.304023      0.113391
  C      -0.847288     -1.058133      0.171168
  C      -2.055042     -0.435854     -0.042868
  O      -3.267081     -1.077259      0.016300
  C      -2.154222      0.934825     -0.325803
  O      -3.301320      1.526397     -0.546038
  C      -0.954176      1.667966     -0.369775
  O      -1.037782      3.002429     -0.642926
  C       0.266782      1.067357     -0.155795
  H       3.976518     -1.219894      1.514099
  H       4.657251      0.026373      0.432733
  H       4.130396     -1.543951     -0.232928
  H      -0.809822     -2.119690      0.385244
  H      -3.172786     -2.034358     -0.056068
  H      -1.981583      3.196583     -0.757083
  H       1.167437      1.665532     -0.201845
  O      -6.140829     -1.362688     -0.696084
  H      -6.646382     -1.449852      0.121402
  H      -6.796938     -1.340522     -1.404132
  O      -6.354497      1.672589     -1.274753
  H      -6.286137      1.880559     -2.214966
  H      -6.292930      2.521230     -0.818791
  O      -5.456092      0.582164      1.359103
  H      -4.853191      1.203609      1.786150
  H      -6.332741      0.977248      1.443488
  O      -4.513328     -0.126530     -2.735936
  H      -4.652793     -1.055135     -2.958687
  H      -3.589953      0.052090     -2.953681
33
Coordinates from ORCA-job zn_P1_cplx E -2769.438188716780
  Zn     -4.870895      0.306295     -0.673916
  C       3.930694     -0.778113      0.518327
  O       2.657054     -0.174710      0.294271
  C       1.599757     -0.990138      0.349546
  O       1.711528     -2.182590      0.577196
  C       0.326738     -0.303951      0.113525
  C      -0.847392     -1.058254      0.171030
  C      -2.055179     -0.436178     -0.043453
  O      -3.267054     -1.077873      0.015367
  C      -2.154499      0.934452     -0.326537
  O      -3.301480      1.526123     -0.547228
  C      -0.954499      1.667714     -0.370220
  O      -1.038227      3.002149     -0.643486
  C       0.266528      1.067363     -0.155853
  H       3.976453     -1.218971      1.514857
  H       4.657075      0.026659      0.432758
  H       4.130154     -1.543940     -0.232099
  H      -0.809464     -2.119754      0.385269
  H      -3.172588     -2.035024     -0.056010
  H      -1.982050      3.196106     -0.757880
  H       1.167104      1.665660     -0.201730
  O      -6.141296     -1.362541     -0.695796
  H      -6.647891     -1.448775      0.121143
  H      -6.796458     -1.340861     -1.404740
  O      -6.354294      1.673544     -1.273835
  H      -6.286214      1.881652     -2.214035
  H      -6.292162      2.521998     -0.817626
  O      -5.454726      0.581519      1.359195
  H      -4.850882      1.202034      1.786262
  H      -6.330877      0.977540      1.444396
  O      -4.513811     -0.126807     -2.736503
  H      -4.653000     -1.055434     -2.959350
  H      -3.590483      0.052034     -2.954270
33
Coordinates from ORCA-job zn_P1_cplx E -2769.438192110681
  Zn     -4.871263      0.306167     -0.674311
  C       3.930589     -0.777721      0.518869
  O       2.656917     -0.174399      0.294722
  C       1.599678     -0.989934      0.349878
  O       1.711563     -2.182365      0.577630
  C       0.326636     -0.303921      0.113628
  C      -0.847431     -1.058373      0.170909
  C      -2.055259     -0.436514     -0.043898
  O      -3.267031     -1.078322      0.014569
  C      -2.154708      0.934069     -0.327150
  O      -3.301581      1.525749     -0.548287
  C      -0.954759      1.667471     -0.370612
  O      -1.038828      3.001869     -0.644061
  C       0.266310      1.067376     -0.155906
  H       3.976377     -1.218415      1.515467
  H       4.656916      0.027097      0.433209
  H       4.130115     -1.543587     -0.231493
  H      -0.809086     -2.119831      0.385274
  H      -3.172559     -2.035545     -0.055740
  H      -1.982755      3.195340     -0.758586
  H       1.166841      1.665751     -0.201649
  O      -6.141907     -1.362217     -0.695552
  H      -6.649531     -1.447571      0.120832
  H      -6.796106     -1.341052     -1.405406
  O      -6.353977      1.674571     -1.273007
  H      -6.286605      1.882538     -2.213286
  H      -6.290809      2.522953     -0.816824
  O      -5.453428      0.580817      1.359243
  H      -4.848660      1.200376      1.786392
  H      -6.329080      0.977751      1.445361
  O      -4.514397     -0.127161     -2.737022
  H      -4.653506     -1.055745     -2.960089
  H      -3.591010      0.051708     -2.954524
33
Coordinates from ORCA-job zn_P1_cplx E -2769.438179246672
  Zn     -4.871711      0.305952     -0.674813
  C       3.930521     -0.777111      0.519884
  O       2.656820     -0.173903      0.295457
  C       1.599697     -0.989655      0.350126
  O       1.711778     -2.182086      0.577868
  C       0.326640     -0.303930      0.113540
  C      -0.847359     -1.058534      0.170534
  C      -2.055262     -0.436957     -0.044543
  O      -3.266947     -1.078784      0.013585
  C      -2.154850      0.933570     -0.327997
  O      -3.301646      1.525134     -0.549605
  C      -0.954979      1.667179     -0.371228
  O      -1.039584      3.001539     -0.644873
  C       0.266120      1.067380     -0.156141
  H       3.976084     -1.217997      1.516403
  H       4.656718      0.027864      0.434583
  H       4.130376     -1.542791     -0.230579
  H      -0.808706     -2.119966      0.385004
  H      -3.172528     -2.036096     -0.055472
  H      -1.983672      3.194287     -0.759535
  H       1.166597      1.665854     -0.201677
  O      -6.142893     -1.361647     -0.695265
  H      -6.651834     -1.445828      0.120403
  H      -6.795864     -1.341184     -1.406268
  O      -6.353555      1.675916     -1.271854
  H      -6.287525      1.883468     -2.212320
  H      -6.288513      2.524343     -0.816029
  O      -5.451701      0.579774      1.359361
  H      -4.845588      1.197937      1.786632
  H      -6.326619      0.978057      1.446750
  O      -4.515521     -0.127679     -2.737634
  H      -4.654836     -1.056153     -2.961026
  H      -3.591990      0.050976     -2.954697
33
Coordinates from ORCA-job zn_P1_cplx E -2769.438172092985
  Zn     -4.871917      0.305874     -0.674996
  C       3.930489     -0.776750      0.520690
  O       2.656788     -0.173639      0.295914
  C       1.599738     -0.989549      0.350030
  O       1.711930     -2.182014      0.577601
  C       0.326684     -0.303974      0.113260
  C      -0.847295     -1.058613      0.170169
  C      -2.055234     -0.437158     -0.044983
  O      -3.266928     -1.078891      0.013052
  C      -2.154847      0.933344     -0.328551
  O      -3.301659      1.524761     -0.550280
  C      -0.955024      1.667050     -0.371741
  O      -1.039935      3.001391     -0.645513
  C       0.266066      1.067358     -0.156498
  H       3.975667     -1.218041      1.517045
  H       4.656568      0.028394      0.436006
  H       4.130778     -1.542134     -0.229960
  H      -0.808712     -2.120050      0.384676
  H      -3.172529     -2.036261     -0.055262
  H      -1.984120      3.193723     -0.760199
  H       1.166536      1.665858     -0.201945
  O      -6.143421     -1.361339     -0.695108
  H      -6.653169     -1.444840      0.120118
  H      -6.795675     -1.341481     -1.406787
  O      -6.353323      1.676598     -1.271237
  H      -6.288059      1.884012     -2.211789
  H      -6.287157      2.525046     -0.815606
  O      -5.450698      0.579222      1.359606
  H      -4.844028      1.196866      1.786846
  H      -6.325368      0.977870      1.447846
  O      -4.516196     -0.127938     -2.737812
  H      -4.655742     -1.056308     -2.961474
  H      -3.592546      0.050540     -2.954537
33
Coordinates from ORCA-job zn_P1_cplx E -2769.438171347459
  Zn     -4.872087      0.305814     -0.675244
  C       3.930407     -0.776313      0.521772
  O       2.656700     -0.173367      0.296556
  C       1.599755     -0.989468      0.350009
  O       1.712051     -2.181971      0.577360
  C       0.326710     -0.304038      0.112919
  C      -0.847236     -1.058708      0.169690
  C      -2.055188     -0.437351     -0.045651
  O      -3.266901     -1.078983      0.012225
  C      -2.154764      0.933131     -0.329358
  O      -3.301647      1.524333     -0.551193
  C      -0.955004      1.666922     -0.372479
  O      -1.040084      3.001230     -0.646435
  C       0.266048      1.067295     -0.156955
  H       3.975087     -1.218184      1.517893
  H       4.656332      0.029051      0.437934
  H       4.131287     -1.541294     -0.229135
  H      -0.808950     -2.120150      0.384250
  H      -3.172421     -2.036427     -0.054964
  H      -1.984311      3.193300     -0.761261
  H       1.166527      1.665795     -0.202286
  O      -6.144035     -1.361005     -0.695112
  H      -6.654254     -1.444192      0.119848
  H      -6.795904     -1.341560     -1.407153
  O      -6.353212      1.677174     -1.270451
  H      -6.288845      1.884556     -2.211077
  H      -6.285751      2.525630     -0.815002
  O      -5.449336      0.578548      1.360002
  H      -4.842110      1.195830      1.786970
  H      -6.323819      0.977376      1.449260
  O      -4.517111     -0.128041     -2.738001
  H      -4.656906     -1.056312     -2.961901
  H      -3.593370      0.050306     -2.954453
33
Coordinates from ORCA-job zn_P1_cplx E -2769.438188506682
  Zn     -4.872255      0.305750     -0.675517
  C       3.930334     -0.776024      0.522684
  O       2.656655     -0.173187      0.297079
  C       1.599763     -0.989370      0.350136
  O       1.712070     -2.181882      0.577402
  C       0.326722     -0.304013      0.112694
  C      -0.847172     -1.058747      0.169354
  C      -2.055130     -0.437461     -0.046259
  O      -3.266821     -1.079109      0.011449
  C      -2.154685      0.932994     -0.330111
  O      -3.301648      1.524018     -0.552098
  C      -0.954988      1.666861     -0.373144
  O      -1.040019      3.001140     -0.647227
  C       0.266056      1.067275     -0.157344
  H       3.974625     -1.218195      1.518691
  H       4.656207      0.029436      0.439383
  H       4.131624     -1.540804     -0.228322
  H      -0.809125     -2.120183      0.384001
  H      -3.172142     -2.036605     -0.054719
  H      -1.984206      3.193257     -0.762241
  H       1.166522      1.665796     -0.202576
  O      -6.144606     -1.360810     -0.695236
  H      -6.655207     -1.443822      0.119502
  H      -6.796182     -1.341632     -1.407553
  O      -6.353337      1.677523     -1.269708
  H      -6.289508      1.885148     -2.210324
  H      -6.285043      2.525872     -0.814169
  O      -5.448098      0.577925      1.360374
  H      -4.840293      1.194915      1.786939
  H      -6.322362      0.977057      1.450403
  O      -4.517980     -0.128049     -2.738247
  H      -4.657939     -1.056287     -2.962187
  H      -3.594166      0.050136     -2.954532
33
Coordinates from ORCA-job zn_P1_cplx E -2769.438185790882
  Zn     -4.872355      0.305764     -0.675774
  C       3.930237     -0.775883      0.523367
  O       2.656597     -0.173116      0.297435
  C       1.599725     -0.989308      0.350351
  O       1.711994     -2.181804      0.577676
  C       0.326689     -0.303969      0.112588
  C      -0.847161     -1.058778      0.169063
  C      -2.055097     -0.437513     -0.046855
  O      -3.266739     -1.079258      0.010602
  C      -2.154636      0.932932     -0.330776
  O      -3.301650      1.523862     -0.552944
  C      -0.954989      1.666838     -0.373629
  O      -1.039805      3.001107     -0.647719
  C       0.266050      1.067266     -0.157558
  H       3.974291     -1.218049      1.519389
  H       4.656126      0.029584      0.440254
  H       4.131757     -1.540669     -0.227575
  H      -0.809232     -2.120204      0.383772
  H      -3.171835     -2.036798     -0.054531
  H      -1.983895      3.193508     -0.762950
  H       1.166496      1.665827     -0.202645
  O      -6.144951     -1.360668     -0.695274
  H      -6.655562     -1.443796      0.119449
  H      -6.796519     -1.341795     -1.407602
  O      -6.353539      1.677616     -1.269240
  H      -6.289853      1.885714     -2.209764
  H      -6.285107      2.525756     -0.813321
  O      -5.447043      0.577552      1.360599
  H      -4.838851      1.194408      1.786796
  H      -6.321204      0.976749      1.451271
  O      -4.518653     -0.127969     -2.738488
  H      -4.658740     -1.056185     -2.962433
  H      -3.594881      0.050209     -2.954955
