33
Coordinates from ORCA-job zn_P1_cplx E -2769.438185790882
  Zn         -4.87235453895052      0.30576383770267     -0.67577403184855
  C           3.93023667383013     -0.77588295054963      0.52336689045880
  O           2.65659709789470     -0.17311551379125      0.29743450169974
  C           1.59972492808706     -0.98930843624760      0.35035068462196
  O           1.71199402931761     -2.18180400475241      0.57767594874762
  C           0.32668896200627     -0.30396949128224      0.11258817868142
  C          -0.84716145916468     -1.05877758275642      0.16906319591964
  C          -2.05509711544945     -0.43751343087201     -0.04685523824788
  O          -3.26673896593676     -1.07925782871160      0.01060173090981
  C          -2.15463572521021      0.93293152837878     -0.33077582293324
  O          -3.30164994055644      1.52386198001866     -0.55294391761566
  C          -0.95498876359939      1.66683777539731     -0.37362944187708
  O          -1.03980545333345      3.00110695321811     -0.64771938253677
  C           0.26605034849133      1.06726559138426     -0.15755837036996
  H           3.97429054942927     -1.21804906145964      1.51938891254530
  H           4.65612568828724      0.02958400506737      0.44025372097312
  H           4.13175733457854     -1.54066886392790     -0.22757506692063
  H          -0.80923205626272     -2.12020440391302      0.38377191239935
  H          -3.17183467305320     -2.03679752586293     -0.05453082261250
  H          -1.98389451567589      3.19350834974818     -0.76295035506158
  H           1.16649635437783      1.66582678158443     -0.20264548580347
  O          -6.14495149217413     -1.36066784461174     -0.69527357553410
  H          -6.65556245134065     -1.44379610308386      0.11944925126759
  H          -6.79651949397516     -1.34179546300390     -1.40760193054316
  O          -6.35353890016466      1.67761554788407     -1.26923963732978
  H          -6.28985294448587      1.88571391878310     -2.20976377134856
  H          -6.28510701499417      2.52575565571538     -0.81332113934412
  O          -5.44704280896344      0.57755158988927      1.36059946853414
  H          -4.83885146311484      1.19440808114598      1.78679593189175
  H          -6.32120419951858      0.97674860492002      1.45127091812129
  O          -4.51865324390346     -0.12796870918843     -2.73848778905756
  H          -4.65873992848281     -1.05618517512594     -2.96243264810979
  H          -3.59488057798935      0.05020920830290     -2.95495466967712
