19
Coordinates from ORCA-job cu_aquo6 E -2098.401066280544
  Cu         -0.02547914574338      0.07048695435909     -0.06129941007369
  O           1.97226670316894     -0.14896572312657      0.01289239185622
  H           2.42764421924967      0.62131007201499     -0.35238772016904
  H           2.25307584483559     -0.89797258869784     -0.52975824596758
  O          -2.02325933994926      0.29032566402633     -0.13530684591031
  H          -2.47923061477234     -0.48141402482140      0.22612701601000
  H          -2.30349295628750      1.03683131837072      0.41107539249956
  O           0.14482672241855      2.06758413719597      0.03720408070396
  H           0.52046768014232      2.32838206164196      0.88889200245520
  H           0.76021835646390      2.39751635153129     -0.63139905533471
  O          -0.19493255847398     -1.92689235413873     -0.15902327806943
  H          -0.56572469888683     -2.18811844808826     -1.01270534259001
  H          -0.81419659903225     -2.25638992728852      0.50619459468396
  O          -0.12729543462859     -0.03550795121841      2.23195514440049
  H          -0.88192974598234      0.49805964276631      2.50753708966775
  H           0.64185517595402      0.42613630485203      2.58609256748000
  O           0.07524435736477      0.17637873372167     -2.35458517898654
  H          -0.69167993091656     -0.28973953545084     -2.70771611210095
  H           0.83253592507525     -0.35347724764980     -2.63004320055484
