19
Coordinates from ORCA-job cu_aquo6 E -2098.395985760089
  Cu     -0.026393      0.060995     -0.063728
  O       1.909247     -0.114500      0.128041
  H       2.412556      0.345678     -0.556957
  H       2.126913     -1.055439      0.070939
  O      -1.965104      0.214557     -0.234200
  H      -2.438768     -0.223606      0.486208
  H      -2.196138      1.153647     -0.206352
  O       0.007841      2.251617      0.014129
  H       0.653164      2.646806      0.612271
  H       0.181288      2.608667     -0.865950
  O      -0.059616     -2.126997     -0.135752
  H      -0.680993     -2.524143     -0.757678
  H      -0.259261     -2.490656      0.735801
  O      -0.261604     -0.153542      2.133641
  H      -0.602604      0.625581      2.588289
  H       0.577393     -0.373535      2.555163
  O       0.188527      0.351350     -2.253426
  H      -0.668057      0.494375     -2.672789
  H       0.622524     -0.356321     -2.743902
19
Coordinates from ORCA-job cu_aquo6 E -2098.396755637972
  Cu     -0.026959      0.062074     -0.063456
  O       1.909532     -0.107173      0.127539
  H       2.407320      0.357024     -0.557887
  H       2.136708     -1.044416      0.054958
  O      -1.966333      0.209416     -0.239289
  H      -2.438022     -0.232991      0.478414
  H      -2.207304      1.145007     -0.197532
  O       0.008866      2.244856      0.021744
  H       0.655648      2.630449      0.622959
  H       0.203047      2.602585     -0.852162
  O      -0.060097     -2.117657     -0.137964
  H      -0.683809     -2.506950     -0.760757
  H      -0.279119     -2.479892      0.728216
  O      -0.261881     -0.152184      2.125988
  H      -0.598280      0.631210      2.575074
  H       0.580115     -0.358826      2.547253
  O       0.189348      0.346245     -2.245364
  H      -0.668225      0.473544     -2.666426
  H       0.620360     -0.367787     -2.727561
19
Coordinates from ORCA-job cu_aquo6 E -2098.397985823902
  Cu     -0.028815      0.065599     -0.062719
  O       1.911194     -0.083819      0.124845
  H       2.391373      0.392797     -0.565611
  H       2.167228     -1.010809      0.017277
  O      -1.971186      0.192892     -0.254444
  H      -2.437346     -0.263428      0.458718
  H      -2.244110      1.118324     -0.182513
  O       0.014374      2.222596      0.048426
  H       0.670650      2.574640      0.661065
  H       0.260817      2.584969     -0.810837
  O      -0.062922     -2.087405     -0.147185
  H      -0.698242     -2.449645     -0.775697
  H      -0.331001     -2.447006      0.706877
  O      -0.261245     -0.146156      2.102091
  H      -0.585521      0.654002      2.531670
  H       0.590478     -0.318041      2.521385
  O       0.190748      0.328859     -2.220195
  H      -0.670816      0.414288     -2.645305
  H       0.615256     -0.408124     -2.674102
19
Coordinates from ORCA-job cu_aquo6 E -2098.398320346578
  Cu     -0.029842      0.067707     -0.062532
  O       1.913720     -0.069062      0.121765
  H       2.381442      0.420635     -0.568734
  H       2.186479     -0.989355     -0.002174
  O      -1.975277      0.183573     -0.260619
  H      -2.436144     -0.287554      0.447026
  H      -2.266315      1.102360     -0.173512
  O       0.020852      2.210152      0.063953
  H       0.678166      2.537686      0.689958
  H       0.299297      2.573530     -0.785746
  O      -0.068258     -2.070890     -0.153922
  H      -0.705503     -2.412315     -0.793131
  H      -0.366698     -2.427387      0.692005
  O      -0.258566     -0.138523      2.090922
  H      -0.577941      0.672564      2.504607
  H       0.598591     -0.293066      2.506936
  O       0.188951      0.314682     -2.208691
  H      -0.675263      0.375963     -2.633607
  H       0.613223     -0.436165     -2.640759
19
Coordinates from ORCA-job cu_aquo6 E -2098.398585917570
  Cu     -0.030746      0.069384     -0.062699
  O       1.917381     -0.056375      0.118059
  H       2.373282      0.449839     -0.568592
  H       2.203591     -0.970984     -0.016072
  O      -1.980233      0.177012     -0.262043
  H      -2.434466     -0.312355      0.437698
  H      -2.284586      1.090212     -0.163563
  O       0.029541      2.201779      0.075405
  H       0.681792      2.505311      0.719092
  H       0.335616      2.564453     -0.765418
  O      -0.076553     -2.060073     -0.160875
  H      -0.708771     -2.380341     -0.816411
  H      -0.401231     -2.413338      0.677054
  O      -0.254300     -0.127902      2.086524
  H      -0.572313      0.692437      2.483263
  H       0.606903     -0.271800      2.498315
  O       0.184577      0.299033     -2.204622
  H      -0.682140      0.340384     -2.627313
  H       0.613569     -0.462141     -2.614055
19
Coordinates from ORCA-job cu_aquo6 E -2098.398936065624
  Cu     -0.032111      0.071776     -0.063262
  O       1.924191     -0.038791      0.111696
  H       2.362555      0.495868     -0.564463
  H       2.227608     -0.945282     -0.035372
  O      -1.989032      0.169675     -0.258833
  H      -2.431381     -0.350739      0.425786
  H      -2.309071      1.075040     -0.143922
  O       0.044950      2.193869      0.088433
  H       0.680736      2.460840      0.764083
  H       0.392245      2.553634     -0.737633
  O      -0.092598     -2.049486     -0.172243
  H      -0.707851     -2.336226     -0.858852
  H      -0.456888     -2.397813      0.651429
  O      -0.246257     -0.108177      2.088541
  H      -0.565067      0.724425      2.458011
  H       0.619950     -0.241017      2.493012
  O       0.175548      0.272621     -2.207601
  H      -0.694575      0.284190     -2.625001
  H       0.617963     -0.499874     -2.580064
19
Coordinates from ORCA-job cu_aquo6 E -2098.399074699975
  Cu     -0.032812      0.072981     -0.063761
  O       1.928596     -0.030315      0.107795
  H       2.358544      0.521628     -0.559446
  H       2.239522     -0.932336     -0.048512
  O      -1.994348      0.167660     -0.253074
  H      -2.429666     -0.371052      0.421486
  H      -2.319579      1.069186     -0.126171
  O       0.053385      2.193345      0.091546
  H       0.671820      2.442239      0.789586
  H       0.428038      2.550529     -0.723497
  O      -0.103267     -2.047972     -0.178539
  H      -0.701007     -2.316684     -0.887294
  H      -0.494452     -2.393704      0.633640
  O      -0.241317     -0.095500      2.096934
  H      -0.561502      0.742644      2.451639
  H       0.627190     -0.223440      2.497248
  O       0.169645      0.256289     -2.216971
  H      -0.701996      0.247947     -2.630667
  H       0.624120     -0.518912     -2.568195
19
Coordinates from ORCA-job cu_aquo6 E -2098.399197293966
  Cu     -0.033244      0.073883     -0.064232
  O       1.932205     -0.024431      0.104477
  H       2.357088      0.542770     -0.552897
  H       2.248327     -0.922024     -0.065415
  O      -1.998238      0.167707     -0.245931
  H      -2.428463     -0.386069      0.419353
  H      -2.325186      1.066084     -0.103470
  O       0.058709      2.195045      0.090466
  H       0.656272      2.432493      0.810256
  H       0.462776      2.549504     -0.711446
  O      -0.112514     -2.049005     -0.182853
  H      -0.689710     -2.304621     -0.913002
  H      -0.533315     -2.392422      0.615205
  O      -0.237795     -0.084883      2.109355
  H      -0.558547      0.757214      2.453377
  H       0.632643     -0.207395      2.506546
  O       0.165064      0.242057     -2.230533
  H      -0.707460      0.211501     -2.640759
  H       0.632301     -0.532875     -2.564751
19
Coordinates from ORCA-job cu_aquo6 E -2098.399332060851
  Cu     -0.033331      0.074750     -0.064464
  O       1.934743     -0.020598      0.101709
  H       2.357299      0.560741     -0.544725
  H       2.254757     -0.912987     -0.087723
  O      -2.000256      0.169247     -0.238744
  H      -2.427437     -0.396988      0.417901
  H      -2.326842      1.064438     -0.076484
  O       0.061048      2.196670      0.086450
  H       0.636302      2.428167      0.826232
  H       0.496317      2.548447     -0.700140
  O      -0.120140     -2.049575     -0.185509
  H      -0.675969     -2.295723     -0.935342
  H      -0.572976     -2.390835      0.595754
  O      -0.235947     -0.076729      2.123948
  H      -0.556083      0.768397      2.460824
  H       0.636444     -0.192142      2.518808
  O       0.162135      0.229624     -2.246005
  H      -0.710889      0.173146     -2.652217
  H       0.641738     -0.543516     -2.566528
19
Coordinates from ORCA-job cu_aquo6 E -2098.399455479724
  Cu     -0.033063      0.075566     -0.064442
  O       1.935710     -0.019512      0.099325
  H       2.358299      0.576210     -0.534123
  H       2.258381     -0.905420     -0.115736
  O      -2.000013      0.172462     -0.232246
  H      -2.426133     -0.405288      0.415200
  H      -2.324431      1.063864     -0.045166
  O       0.061151      2.195814      0.079957
  H       0.614923      2.426450      0.836549
  H       0.526123      2.545058     -0.690794
  O      -0.125862     -2.047325     -0.185943
  H      -0.661546     -2.287804     -0.952419
  H      -0.609308     -2.386624      0.577865
  O      -0.236271     -0.071335      2.138327
  H      -0.555627      0.775869      2.471055
  H       0.637960     -0.178362      2.531725
  O       0.161000      0.219643     -2.261133
  H      -0.712187      0.136050     -2.662598
  H       0.651806     -0.550781     -2.571658
19
Coordinates from ORCA-job cu_aquo6 E -2098.399555196881
  Cu     -0.032735      0.076497     -0.064159
  O       1.935304     -0.020802      0.096639
  H       2.358594      0.591904     -0.520273
  H       2.259881     -0.898524     -0.148245
  O      -1.998495      0.176995     -0.226764
  H      -2.424488     -0.414416      0.408647
  H      -2.320574      1.063257     -0.011782
  O       0.061342      2.190848      0.072279
  H       0.594261      2.422996      0.843665
  H       0.552822      2.537363     -0.683446
  O      -0.130871     -2.040531     -0.184065
  H      -0.646828     -2.277602     -0.965393
  H      -0.641608     -2.377582      0.563167
  O      -0.237438     -0.067261      2.151036
  H      -0.556573      0.781358      2.480764
  H       0.638550     -0.166330      2.542926
  O       0.160485      0.210834     -2.274331
  H      -0.712615      0.101842     -2.670284
  H       0.661903     -0.556313     -2.576636
19
Coordinates from ORCA-job cu_aquo6 E -2098.399712820039
  Cu     -0.032251      0.078093     -0.063402
  O       1.933139     -0.026419      0.092175
  H       2.358633      0.613747     -0.495060
  H       2.258535     -0.889622     -0.199517
  O      -1.995139      0.185965     -0.219030
  H      -2.421943     -0.428917      0.393569
  H      -2.313161      1.062187      0.040094
  O       0.062366      2.178294      0.058775
  H       0.563569      2.416554      0.849863
  H       0.587940      2.520428     -0.676261
  O      -0.137423     -2.024691     -0.178330
  H      -0.622558     -2.260397     -0.980094
  H      -0.683646     -2.358384      0.545518
  O      -0.239534     -0.062255      2.169167
  H      -0.559802      0.787195      2.496067
  H       0.638817     -0.151355      2.558504
  O       0.159684      0.199161     -2.292906
  H      -0.712958      0.056584     -2.679621
  H       0.676647     -0.561635     -2.585765
19
Coordinates from ORCA-job cu_aquo6 E -2098.399985982318
  Cu     -0.031872      0.080735     -0.061928
  O       1.928699     -0.038546      0.084481
  H       2.358443      0.641413     -0.453271
  H       2.252586     -0.876939     -0.273387
  O      -1.990360      0.201809     -0.207101
  H      -2.419163     -0.449193      0.365943
  H      -2.301856      1.059212      0.115546
  O       0.065357      2.152774      0.037380
  H       0.515454      2.403865      0.855365
  H       0.636188      2.487886     -0.667246
  O      -0.145943     -1.993821     -0.167586
  H      -0.579858     -2.231399     -0.998239
  H      -0.739502     -2.322881      0.520982
  O      -0.241008     -0.054665      2.195896
  H      -0.565257      0.794590      2.519425
  H       0.640878     -0.131194      2.579949
  O       0.156279      0.182201     -2.320002
  H      -0.714871     -0.004643     -2.691196
  H       0.696719     -0.566671     -2.601265
19
Coordinates from ORCA-job cu_aquo6 E -2098.400256536657
  Cu     -0.032030      0.083432     -0.060044
  O       1.923492     -0.057604      0.072910
  H       2.359873      0.666512     -0.397601
  H       2.242203     -0.862908     -0.357884
  O      -1.986688      0.224900     -0.191621
  H      -2.420020     -0.465927      0.329015
  H      -2.287854      1.057182      0.198893
  O       0.069413      2.115919      0.012163
  H       0.452393      2.386646      0.857938
  H       0.687356      2.443330     -0.655980
  O      -0.154438     -1.951840     -0.152995
  H      -0.519586     -2.196926     -1.014366
  H      -0.796864     -2.276983      0.492666
  O      -0.239240     -0.045424      2.228464
  H      -0.572235      0.801411      2.548798
  H       0.647039     -0.108765      2.604160
  O       0.148470      0.161833     -2.352984
  H      -0.719264     -0.072184     -2.704397
  H       0.718894     -0.568072     -2.623388
19
Coordinates from ORCA-job cu_aquo6 E -2098.400381732367
  Cu     -0.033004      0.083253     -0.059832
  O       1.925285     -0.063149      0.068539
  H       2.362510      0.671206     -0.384081
  H       2.243197     -0.863343     -0.371802
  O      -1.990790      0.231537     -0.188085
  H      -2.426248     -0.468242      0.317929
  H      -2.290704      1.060759      0.209275
  O       0.072529      2.108271      0.010296
  H       0.438751      2.381384      0.862324
  H       0.696357      2.435086     -0.652192
  O      -0.156593     -1.944858     -0.150102
  H      -0.504538     -2.192750     -1.017438
  H      -0.804164     -2.270833      0.489506
  O      -0.234817     -0.041684      2.233675
  H      -0.573354      0.803688      2.551288
  H       0.652878     -0.102433      2.605680
  O       0.143400      0.157067     -2.358535
  H      -0.723153     -0.084585     -2.706732
  H       0.723371     -0.565840     -2.625967
19
Coordinates from ORCA-job cu_aquo6 E -2098.400529287863
  Cu     -0.035194      0.081154     -0.059833
  O       1.931765     -0.073094      0.064992
  H       2.373110      0.663169     -0.378484
  H       2.247380     -0.878697     -0.365524
  O      -2.002214      0.238447     -0.189264
  H      -2.444124     -0.462044      0.308415
  H      -2.302834      1.073682      0.192956
  O       0.073971      2.105547      0.016050
  H       0.438162      2.383365      0.866599
  H       0.682568      2.437666     -0.656850
  O      -0.152963     -1.946233     -0.146134
  H      -0.499444     -2.206153     -1.009768
  H      -0.782677     -2.279269      0.506532
  O      -0.226612     -0.041135      2.229957
  H      -0.576222      0.799011      2.548042
  H       0.662264     -0.099728      2.598260
  O       0.137538      0.162555     -2.355400
  H      -0.728322     -0.072260     -2.708298
  H       0.724763     -0.551448     -2.628503
19
Coordinates from ORCA-job cu_aquo6 E -2098.400598799638
  Cu     -0.036838      0.081622     -0.059557
  O       1.935747     -0.081504      0.057741
  H       2.379669      0.670581     -0.355198
  H       2.250952     -0.871847     -0.399805
  O      -2.010264      0.247273     -0.184196
  H      -2.455093     -0.468803      0.287591
  H      -2.312384      1.070706      0.220924
  O       0.079361      2.092903      0.014717
  H       0.415135      2.371400      0.876663
  H       0.708695      2.424244     -0.639257
  O      -0.158078     -1.932368     -0.143472
  H      -0.476487     -2.193562     -1.017472
  H      -0.807308     -2.265355      0.489877
  O      -0.219402     -0.032981      2.240243
  H      -0.576243      0.806596      2.551267
  H       0.672991     -0.076403      2.601786
  O       0.129355      0.152755     -2.366194
  H      -0.731332     -0.109229     -2.712275
  H       0.732436     -0.551494     -2.629637
19
Coordinates from ORCA-job cu_aquo6 E -2098.400706942792
  Cu     -0.038829      0.081226     -0.059379
  O       1.943135     -0.092679      0.052251
  H       2.393307      0.667257     -0.339014
  H       2.256811     -0.871429     -0.425642
  O      -2.022609      0.253722     -0.183582
  H      -2.472425     -0.472165      0.267962
  H      -2.329695      1.067274      0.237219
  O       0.082705      2.083785      0.018614
  H       0.403544      2.364182      0.885805
  H       0.722497      2.418684     -0.623551
  O      -0.160263     -1.922849     -0.140712
  H      -0.465057     -2.191091     -1.017693
  H      -0.817946     -2.258552      0.482813
  O      -0.210512     -0.027015      2.244302
  H      -0.578371      0.809740      2.550599
  H       0.685373     -0.048671      2.599624
  O       0.122169      0.150983     -2.370611
  H      -0.731707     -0.134476     -2.715530
  H       0.738787     -0.543393     -2.629728
19
Coordinates from ORCA-job cu_aquo6 E -2098.400803168837
  Cu     -0.040152      0.080191     -0.059302
  O       1.951304     -0.101841      0.050595
  H       2.407785      0.658276     -0.333380
  H       2.262938     -0.874359     -0.438968
  O      -2.033911      0.255811     -0.186594
  H      -2.487822     -0.473797      0.255073
  H      -2.346665      1.062439      0.243599
  O       0.084057      2.080295      0.024219
  H       0.406029      2.362451      0.890744
  H       0.724511      2.420029     -0.615199
  O      -0.161354     -1.920176     -0.138960
  H      -0.468645     -2.197108     -1.012759
  H      -0.817309     -2.258609      0.485482
  O      -0.203127     -0.024489      2.241892
  H      -0.584066      0.807307      2.546754
  H       0.694734     -0.023853      2.593761
  O       0.118100      0.156033     -2.367975
  H      -0.729437     -0.143948     -2.717044
  H       0.743944     -0.530119     -2.628189
19
Coordinates from ORCA-job cu_aquo6 E -2098.400777749001
  Cu     -0.040409      0.079605     -0.059365
  O       1.954898     -0.105120      0.050038
  H       2.412589      0.656584     -0.329507
  H       2.265328     -0.872907     -0.447969
  O      -2.037878      0.256488     -0.187150
  H      -2.492078     -0.476921      0.248054
  H      -2.352122      1.057742      0.252163
  O       0.086211      2.078113      0.025675
  H       0.408598      2.359243      0.892529
  H       0.728397      2.418261     -0.611950
  O      -0.164388     -1.919130     -0.138694
  H      -0.472378     -2.198024     -1.011708
  H      -0.820522     -2.256904      0.486050
  O      -0.199651     -0.022711      2.240374
  H      -0.590654      0.805037      2.543813
  H       0.698799     -0.008749      2.590665
  O       0.115806      0.157374     -2.366206
  H      -0.728168     -0.150885     -2.716821
  H       0.748537     -0.522562     -2.626244
19
Coordinates from ORCA-job cu_aquo6 E -2098.400837810012
  Cu     -0.040308      0.077753     -0.059531
  O       1.962512     -0.114100      0.049524
  H       2.422543      0.652045     -0.318530
  H       2.267685     -0.869790     -0.470427
  O      -2.044573      0.259181     -0.187424
  H      -2.498698     -0.484339      0.230746
  H      -2.358655      1.046213      0.277531
  O       0.091887      2.072462      0.026232
  H       0.418964      2.352652      0.891883
  H       0.733841      2.412104     -0.612151
  O      -0.172387     -1.917494     -0.137274
  H      -0.485241     -2.201959     -1.006773
  H      -0.824496     -2.252618      0.493153
  O      -0.192235     -0.020387      2.235680
  H      -0.614843      0.792174      2.538083
  H       0.705999      0.029392      2.583425
  O       0.110713      0.162800     -2.360598
  H      -0.724235     -0.164011     -2.715883
  H       0.762441     -0.497543     -2.623922
19
Coordinates from ORCA-job cu_aquo6 E -2098.400892235733
  Cu     -0.039653      0.075786     -0.059962
  O       1.968776     -0.120286      0.049426
  H       2.427604      0.651168     -0.309282
  H       2.268818     -0.865058     -0.489246
  O      -2.048264      0.261431     -0.186016
  H      -2.500085     -0.492318      0.216351
  H      -2.359298      1.034656      0.303793
  O       0.099159      2.068973      0.025919
  H       0.433902      2.345285      0.889955
  H       0.738937      2.405919     -0.616089
  O      -0.181667     -1.918629     -0.137542
  H      -0.502398     -2.204277     -1.003609
  H      -0.828401     -2.249492      0.500466
  O      -0.186020     -0.019025      2.229837
  H      -0.642762      0.775218      2.531217
  H       0.709868      0.067823      2.576214
  O       0.105774      0.167285     -2.353858
  H      -0.719854     -0.177695     -2.713380
  H       0.776480     -0.472232     -2.620449
19
Coordinates from ORCA-job cu_aquo6 E -2098.400905881064
  Cu     -0.038714      0.074157     -0.060390
  O       1.970591     -0.125808      0.049364
  H       2.427906      0.650645     -0.300455
  H       2.265193     -0.862808     -0.502850
  O      -2.047126      0.265520     -0.182680
  H      -2.497535     -0.495467      0.207502
  H      -2.350884      1.029222      0.326269
  O       0.103908      2.066611      0.022516
  H       0.445619      2.342630      0.883832
  H       0.738294      2.400594     -0.626206
  O      -0.187079     -1.919894     -0.137330
  H      -0.515647     -2.206102     -1.000089
  H      -0.826983     -2.247945      0.508728
  O      -0.183580     -0.020810      2.226704
  H      -0.668000      0.756064      2.530039
  H       0.708714      0.094163      2.573912
  O       0.102997      0.171295     -2.350243
  H      -0.715316     -0.187820     -2.712447
  H       0.788554     -0.449714     -2.622433
19
Coordinates from ORCA-job cu_aquo6 E -2098.400933574202
  Cu     -0.038020      0.073384     -0.060995
  O       1.968472     -0.125545      0.049237
  H       2.421756      0.653930     -0.298925
  H       2.261517     -0.861933     -0.504282
  O      -2.042699      0.267848     -0.178766
  H      -2.491431     -0.495424      0.208712
  H      -2.339198      1.030187      0.336250
  O       0.106199      2.068518      0.020303
  H       0.453671      2.342467      0.879757
  H       0.735854      2.399863     -0.634090
  O      -0.188840     -1.923372     -0.139529
  H      -0.524885     -2.204629     -1.000893
  H      -0.824664     -2.249950      0.511088
  O      -0.184813     -0.023753      2.225567
  H      -0.681829      0.744513      2.530333
  H       0.704783      0.103294      2.575288
  O       0.102535      0.171614     -2.349324
  H      -0.712112     -0.195570     -2.711683
  H       0.794619     -0.440911     -2.624301
19
Coordinates from ORCA-job cu_aquo6 E -2098.400927705486
  Cu     -0.037946      0.072982     -0.061447
  O       1.966012     -0.128086      0.047426
  H       2.418427      0.653971     -0.295771
  H       2.257789     -0.862591     -0.509029
  O      -2.039923      0.271876     -0.174711
  H      -2.489603     -0.493050      0.208203
  H      -2.330899      1.032577      0.345770
  O       0.106860      2.068759      0.018793
  H       0.455902      2.343409      0.877313
  H       0.734093      2.399533     -0.638106
  O      -0.188174     -1.923748     -0.140541
  H      -0.527799     -2.202572     -1.001363
  H      -0.822451     -2.250968      0.511314
  O      -0.185227     -0.025951      2.227235
  H      -0.691779      0.735490      2.533526
  H       0.702202      0.112003      2.578455
  O       0.101548      0.170990     -2.351559
  H      -0.708534     -0.207170     -2.713085
  H       0.800414     -0.432920     -2.628678
19
Coordinates from ORCA-job cu_aquo6 E -2098.400960027111
  Cu     -0.038273      0.072716     -0.062064
  O       1.964454     -0.128804      0.044841
  H       2.415069      0.654500     -0.297776
  H       2.257220     -0.863427     -0.510754
  O      -2.038853      0.274072     -0.171311
  H      -2.489103     -0.491515      0.209526
  H      -2.327278      1.034345      0.351106
  O       0.108119      2.070794      0.021058
  H       0.461220      2.342312      0.878893
  H       0.733487      2.401974     -0.637368
  O      -0.187990     -1.925440     -0.143489
  H      -0.533737     -2.198945     -1.003690
  H      -0.821112     -2.253456      0.509192
  O      -0.184327     -0.026882      2.227400
  H      -0.700156      0.728629      2.533148
  H       0.700790      0.123327      2.579663
  O       0.099839      0.169014     -2.352349
  H      -0.704533     -0.221976     -2.713315
  H       0.806077     -0.426704     -2.628965
19
Coordinates from ORCA-job cu_aquo6 E -2098.400957237753
  Cu     -0.038966      0.072582     -0.062608
  O       1.963143     -0.131835      0.040791
  H       2.414058      0.652229     -0.299668
  H       2.256811     -0.865302     -0.515859
  O      -2.039130      0.277191     -0.167833
  H      -2.491388     -0.489298      0.208791
  H      -2.326577      1.035566      0.357880
  O       0.109059      2.071363      0.024458
  H       0.465526      2.340547      0.881706
  H       0.733010      2.404260     -0.634535
  O      -0.187690     -1.925204     -0.145939
  H      -0.538642     -2.194782     -1.005449
  H      -0.819604     -2.254845      0.507287
  O      -0.181717     -0.026773      2.228231
  H      -0.709568      0.720855      2.533128
  H       0.700592      0.138962      2.580805
  O       0.097092      0.166681     -2.353759
  H      -0.699259     -0.241126     -2.714224
  H       0.814163     -0.416539     -2.629454
19
Coordinates from ORCA-job cu_aquo6 E -2098.400971061947
  Cu     -0.039596      0.072583     -0.063076
  O       1.962540     -0.134111      0.036808
  H       2.413889      0.650041     -0.303015
  H       2.257295     -0.866608     -0.520595
  O      -2.039912      0.279241     -0.165052
  H      -2.493647     -0.488263      0.207796
  H      -2.327954      1.035229      0.363809
  O       0.110492      2.071660      0.028480
  H       0.470463      2.337500      0.885386
  H       0.733489      2.406138     -0.630711
  O      -0.189018     -1.925026     -0.148572
  H      -0.544424     -2.190800     -1.007543
  H      -0.819557     -2.255580      0.505627
  O      -0.178142     -0.025505      2.228318
  H      -0.718640      0.713737      2.531511
  H       0.701197      0.155410      2.580882
  O       0.093922      0.164187     -2.354128
  H      -0.694049     -0.259837     -2.714306
  H       0.822564     -0.405464     -2.627872
19
Coordinates from ORCA-job cu_aquo6 E -2098.400968722301
  Cu     -0.040031      0.072564     -0.063511
  O       1.961743     -0.136994      0.032589
  H       2.414214      0.646767     -0.306841
  H       2.256661     -0.868545     -0.526095
  O      -2.040020      0.281609     -0.162014
  H      -2.495371     -0.487113      0.206477
  H      -2.328340      1.034521      0.371150
  O       0.112225      2.071473      0.032149
  H       0.476801      2.334540      0.888026
  H       0.732767      2.407458     -0.628666
  O      -0.191584     -1.924971     -0.151118
  H      -0.552078     -2.187974     -1.008845
  H      -0.818820     -2.256132      0.505938
  O      -0.173741     -0.024260      2.228143
  H      -0.730860      0.702971      2.529999
  H       0.701409      0.174999      2.581123
  O       0.090353      0.162506     -2.354000
  H      -0.687432     -0.279618     -2.714360
  H       0.833017     -0.389266     -2.626400
19
Coordinates from ORCA-job cu_aquo6 E -2098.400920926752
  Cu     -0.040117      0.072538     -0.063820
  O       1.961002     -0.139348      0.028940
  H       2.414518      0.643953     -0.310319
  H       2.255132     -0.870209     -0.531162
  O      -2.039353      0.283601     -0.159088
  H      -2.495756     -0.486526      0.205265
  H      -2.327509      1.033454      0.378516
  O       0.114369      2.070999      0.034703
  H       0.483114      2.331941      0.889444
  H       0.732206      2.407747     -0.628271
  O      -0.195106     -1.925218     -0.153360
  H      -0.559846     -2.186581     -1.009723
  H      -0.818759     -2.256295      0.507051
  O      -0.169291     -0.023336      2.227873
  H      -0.743555      0.690677      2.528685
  H       0.701016      0.194728      2.581533
  O       0.086921      0.161792     -2.353498
  H      -0.680778     -0.297193     -2.714115
  H       0.842705     -0.372190     -2.624907
19
Coordinates from ORCA-job cu_aquo6 E -2098.400975742978
  Cu     -0.039878      0.072527     -0.063930
  O       1.960284     -0.141332      0.025811
  H       2.415296      0.641027     -0.313683
  H       2.252571     -0.872235     -0.535274
  O      -2.038043      0.285182     -0.156430
  H      -2.495299     -0.486099      0.204428
  H      -2.325966      1.032620      0.384694
  O       0.116748      2.070149      0.036239
  H       0.489134      2.330179      0.889648
  H       0.731476      2.407163     -0.629467
  O      -0.199169     -1.925585     -0.155131
  H      -0.567191     -2.187148     -1.009899
  H      -0.818896     -2.256145      0.509063
  O      -0.164537     -0.023041      2.227772
  H      -0.756392      0.676474      2.527995
  H       0.700160      0.214627      2.582357
  O       0.083488      0.162443     -2.352873
  H      -0.674287     -0.312262     -2.713856
  H       0.851414     -0.354011     -2.623720
19
Coordinates from ORCA-job cu_aquo6 E -2098.400992381123
  Cu     -0.038114      0.073329     -0.062633
  O       1.959220     -0.135887      0.029589
  H       2.416721      0.641447     -0.317651
  H       2.247349     -0.874703     -0.523128
  O      -2.033567      0.280305     -0.159644
  H      -2.488933     -0.487229      0.211163
  H      -2.323790      1.035557      0.369156
  O       0.116210      2.069308      0.031711
  H       0.483875      2.335904      0.884906
  H       0.729909      2.403987     -0.635897
  O      -0.201409     -1.926645     -0.153425
  H      -0.561068     -2.198224     -1.008210
  H      -0.820833     -2.255010      0.511712
  O      -0.164565     -0.026735      2.229021
  H      -0.750989      0.676369      2.530884
  H       0.701358      0.202661      2.585686
  O       0.085330      0.169915     -2.352433
  H      -0.680597     -0.291248     -2.713534
  H       0.844809     -0.358567     -2.623527
19
Coordinates from ORCA-job cu_aquo6 E -2098.400992913140
  Cu     -0.039287      0.072956     -0.063574
  O       1.959143     -0.139737      0.024790
  H       2.415430      0.640353     -0.318113
  H       2.249572     -0.874255     -0.532473
  O      -2.035875      0.284061     -0.155562
  H      -2.492864     -0.486269      0.207616
  H      -2.325117      1.033945      0.381386
  O       0.118245      2.070107      0.036180
  H       0.489704      2.331248      0.889544
  H       0.732489      2.406434     -0.630212
  O      -0.201757     -1.926221     -0.156134
  H      -0.567844     -2.190475     -1.010748
  H      -0.821192     -2.255936      0.508637
  O      -0.161473     -0.024282      2.228802
  H      -0.760614      0.669186      2.528630
  H       0.700273      0.222212      2.584430
  O       0.081705      0.164601     -2.353323
  H      -0.672731     -0.315815     -2.713666
  H       0.853106     -0.347580     -2.622463
19
Coordinates from ORCA-job cu_aquo6 E -2098.400988787543
  Cu     -0.039446      0.072908     -0.063728
  O       1.958586     -0.140855      0.022958
  H       2.415140      0.639162     -0.319764
  H       2.248672     -0.875360     -0.534503
  O      -2.035765      0.285106     -0.153817
  H      -2.493348     -0.485597      0.207838
  H      -2.324849      1.034256      0.384239
  O       0.119476      2.070380      0.037248
  H       0.492010      2.330769      0.890398
  H       0.733439      2.406947     -0.629309
  O      -0.202413     -1.926321     -0.157064
  H      -0.570142     -2.189813     -1.011258
  H      -0.821412     -2.256308      0.508037
  O      -0.159306     -0.024454      2.229078
  H      -0.766081      0.662609      2.528442
  H       0.699488      0.232149      2.584754
  O       0.079848      0.164240     -2.353836
  H      -0.669362     -0.324617     -2.713841
  H       0.856378     -0.340668     -2.622126
19
Coordinates from ORCA-job cu_aquo6 E -2098.400997917176
  Cu     -0.039564      0.072717     -0.063730
  O       1.958050     -0.142789      0.020414
  H       2.415374      0.636740     -0.322282
  H       2.246382     -0.877878     -0.537155
  O      -2.035857      0.286441     -0.151073
  H      -2.494194     -0.484666      0.208654
  H      -2.324994      1.035084      0.387621
  O       0.122240      2.070431      0.037914
  H       0.494828      2.330916      0.891035
  H       0.736841      2.406602     -0.628280
  O      -0.203295     -1.926178     -0.157636
  H      -0.571822     -2.190794     -1.011223
  H      -0.822471     -2.256337      0.507316
  O      -0.154781     -0.025792      2.229638
  H      -0.775722      0.648895      2.528371
  H       0.698011      0.250912      2.584803
  O       0.076214      0.165527     -2.354864
  H      -0.664598     -0.336637     -2.714240
  H       0.860271     -0.328664     -2.621538
19
Coordinates from ORCA-job cu_aquo6 E -2098.400991268047
  Cu     -0.039394      0.072380     -0.063568
  O       1.957943     -0.144041      0.019022
  H       2.415498      0.634616     -0.325220
  H       2.244006     -0.880539     -0.537797
  O      -2.035636      0.287064     -0.148899
  H      -2.493995     -0.484065      0.210669
  H      -2.324420      1.036055      0.389448
  O       0.125148      2.070542      0.037424
  H       0.497864      2.331514      0.890330
  H       0.740256      2.405433     -0.628933
  O      -0.204162     -1.926490     -0.157573
  H      -0.573088     -2.192994     -1.010429
  H      -0.823232     -2.256251      0.507739
  O      -0.150634     -0.027926      2.229529
  H      -0.785553      0.633857      2.527925
  H       0.695819      0.268471      2.584044
  O       0.073047      0.168247     -2.355122
  H      -0.661294     -0.343681     -2.714202
  H       0.862743     -0.317656     -2.620641
19
Coordinates from ORCA-job cu_aquo6 E -2098.400998877325
  Cu     -0.039095      0.071996     -0.063285
  O       1.958400     -0.144826      0.019126
  H       2.415713      0.633296     -0.326571
  H       2.242805     -0.882259     -0.537275
  O      -2.035530      0.287289     -0.147912
  H      -2.493516     -0.483643      0.212493
  H      -2.323459      1.036787      0.390159
  O       0.126760      2.070268      0.035775
  H       0.498696      2.332217      0.888717
  H       0.742824      2.403605     -0.630470
  O      -0.204072     -1.926460     -0.156626
  H      -0.572136     -2.194582     -1.009348
  H      -0.823539     -2.255737      0.508572
  O      -0.148638     -0.029899      2.229320
  H      -0.791766      0.623896      2.527759
  H       0.694043      0.278079      2.582951
  O       0.071597      0.170881     -2.355129
  H      -0.660994     -0.343714     -2.714007
  H       0.862819     -0.312661     -2.620504
19
Coordinates from ORCA-job cu_aquo6 E -2098.400999730747
  Cu     -0.038359      0.071159     -0.062717
  O       1.959437     -0.146434      0.019112
  H       2.415729      0.630386     -0.330765
  H       2.240960     -0.886064     -0.535803
  O      -2.034947      0.287952     -0.145432
  H      -2.492031     -0.482417      0.217252
  H      -2.320460      1.038397      0.392573
  O       0.129922      2.069888      0.032431
  H       0.501072      2.333044      0.885321
  H       0.747686      2.399889     -0.633868
  O      -0.204062     -1.926696     -0.155023
  H      -0.571167     -2.196497     -1.007605
  H      -0.824013     -2.254840      0.510268
  O      -0.144553     -0.033725      2.228830
  H      -0.806107      0.601415      2.527093
  H       0.689212      0.299627      2.580551
  O       0.068717      0.175802     -2.355021
  H      -0.659898     -0.344834     -2.713278
  H       0.863775     -0.301518     -2.620175
19
Coordinates from ORCA-job cu_aquo6 E -2098.401017653751
  Cu     -0.037524      0.070391     -0.062098
  O       1.960940     -0.148152      0.018694
  H       2.416068      0.627168     -0.336040
  H       2.240527     -0.890036     -0.534207
  O      -2.034480      0.288769     -0.142884
  H      -2.490737     -0.480898      0.222332
  H      -2.317567      1.039980      0.395353
  O       0.132474      2.069221      0.029577
  H       0.502854      2.332861      0.882647
  H       0.752095      2.396255     -0.636455
  O      -0.204004     -1.926637     -0.153656
  H      -0.570025     -2.196482     -1.006669
  H      -0.824716     -2.253827      0.511356
  O      -0.140514     -0.036722      2.228586
  H      -0.820245      0.579185      2.526109
  H       0.683797      0.321604      2.578044
  O       0.066123      0.179784     -2.354985
  H      -0.658974     -0.346427     -2.712107
  H       0.864823     -0.291502     -2.619850
19
Coordinates from ORCA-job cu_aquo6 E -2098.401020738725
  Cu     -0.036662      0.069845     -0.061524
  O       1.962349     -0.149810      0.017321
  H       2.416683      0.623359     -0.343144
  H       2.240922     -0.894633     -0.532159
  O      -2.033882      0.289641     -0.140167
  H      -2.489754     -0.478950      0.227860
  H      -2.315100      1.041893      0.397654
  O       0.134446      2.068555      0.028211
  H       0.504924      2.332003      0.881308
  H       0.755114      2.393673     -0.637786
  O      -0.204028     -1.926561     -0.153136
  H      -0.569767     -2.195190     -1.006648
  H      -0.825131     -2.253322      0.511702
  O      -0.136196     -0.038703      2.228676
  H      -0.833732      0.557595      2.524858
  H       0.677804      0.344272      2.576162
  O       0.063645      0.182692     -2.355124
  H      -0.657230     -0.350187     -2.710785
  H       0.866510     -0.281638     -2.619533
19
Coordinates from ORCA-job cu_aquo6 E -2098.401022918320
  Cu     -0.035653      0.069657     -0.060971
  O       1.963514     -0.150828      0.014630
  H       2.417338      0.619130     -0.353368
  H       2.242525     -0.899995     -0.528761
  O      -2.032776      0.290310     -0.137093
  H      -2.488631     -0.476434      0.234883
  H      -2.312845      1.044428      0.398794
  O       0.135621      2.068024      0.028992
  H       0.507023      2.330194      0.882112
  H       0.756580      2.392633     -0.637021
  O      -0.204110     -1.926626     -0.154102
  H      -0.570186     -2.191879     -1.008533
  H      -0.825709     -2.253640      0.510127
  O      -0.131754     -0.039365      2.229520
  H      -0.846462      0.537604      2.523139
  H       0.671193      0.367549      2.575582
  O       0.061478      0.183855     -2.355761
  H      -0.654837     -0.356639     -2.709080
  H       0.868608     -0.273443     -2.619341
19
Coordinates from ORCA-job cu_aquo6 E -2098.401029628762
  Cu     -0.034464      0.069612     -0.060495
  O       1.963973     -0.152364      0.010129
  H       2.418166      0.613447     -0.365978
  H       2.241690     -0.907091     -0.526226
  O      -2.030994      0.291460     -0.132350
  H      -2.487178     -0.473472      0.242976
  H      -2.310198      1.047698      0.401018
  O       0.138957      2.067830      0.030573
  H       0.512652      2.329270      0.882941
  H       0.758940      2.392106     -0.636562
  O      -0.205203     -1.927030     -0.155617
  H      -0.573121     -2.190853     -1.009727
  H      -0.826241     -2.254292      0.509045
  O      -0.124256     -0.040301      2.230447
  H      -0.863172      0.507083      2.521014
  H       0.660001      0.402102      2.575868
  O       0.057082      0.186044     -2.356653
  H      -0.648463     -0.369930     -2.707765
  H       0.872743     -0.256786     -2.618892
19
Coordinates from ORCA-job cu_aquo6 E -2098.401011195007
  Cu     -0.034134      0.069885     -0.060613
  O       1.963764     -0.151954      0.008459
  H       2.418560      0.612578     -0.369514
  H       2.242602     -0.908376     -0.524923
  O      -2.030284      0.291115     -0.131860
  H      -2.486861     -0.473091      0.244520
  H      -2.310012      1.048099      0.400200
  O       0.138477      2.067770      0.033697
  H       0.514338      2.328207      0.885428
  H       0.756157      2.394195     -0.634540
  O      -0.205352     -1.927547     -0.157439
  H      -0.575032     -2.189666     -1.011316
  H      -0.825447     -2.255679      0.507681
  O      -0.124150     -0.038624      2.231026
  H      -0.864171      0.508261      2.519795
  H       0.659055      0.404753      2.577678
  O       0.057604      0.184436     -2.356945
  H      -0.647638     -0.372192     -2.707679
  H       0.873437     -0.257636     -2.619908
19
Coordinates from ORCA-job cu_aquo6 E -2098.401027096835
  Cu     -0.034037      0.069911     -0.060812
  O       1.963783     -0.152441      0.007543
  H       2.419299      0.612911     -0.367828
  H       2.242068     -0.907681     -0.527778
  O      -2.030421      0.291312     -0.131370
  H      -2.487202     -0.474004      0.242467
  H      -2.310208      1.046775      0.402814
  O       0.139339      2.067158      0.035028
  H       0.515392      2.327700      0.886642
  H       0.756282      2.394623     -0.633400
  O      -0.205923     -1.927443     -0.157892
  H      -0.575647     -2.190465     -1.011481
  H      -0.825993     -2.255700      0.507221
  O      -0.124000     -0.037073      2.231471
  H      -0.864460      0.509827      2.519134
  H       0.658406      0.407097      2.578922
  O       0.057437      0.183412     -2.357307
  H      -0.646942     -0.374127     -2.708400
  H       0.873742     -0.257258     -2.621228
19
Coordinates from ORCA-job cu_aquo6 E -2098.401000970262
  Cu     -0.033382      0.069639     -0.061070
  O       1.964109     -0.152794      0.006953
  H       2.419705      0.613059     -0.367200
  H       2.241340     -0.907530     -0.529567
  O      -2.029774      0.291157     -0.130588
  H      -2.486101     -0.475179      0.241675
  H      -2.308252      1.045203      0.406273
  O       0.140957      2.066737      0.036740
  H       0.519903      2.327187      0.887076
  H       0.754880      2.395436     -0.633844
  O      -0.206023     -1.928265     -0.158561
  H      -0.578032     -2.192056     -1.010922
  H      -0.824429     -2.256540      0.508089
  O      -0.124741     -0.035640      2.231177
  H      -0.868135      0.508485      2.516584
  H       0.654749      0.412186      2.580567
  O       0.058074      0.183148     -2.356743
  H      -0.647354     -0.372333     -2.709037
  H       0.873420     -0.257365     -2.623857
19
Coordinates from ORCA-job cu_aquo6 E -2098.401036584014
  Cu     -0.032217      0.069046     -0.061140
  O       1.965755     -0.153898      0.006467
  H       2.420825      0.612898     -0.366320
  H       2.241842     -0.907388     -0.532354
  O      -2.029426      0.291271     -0.129205
  H      -2.484807     -0.476646      0.240935
  H      -2.305510      1.042778      0.412446
  O       0.143339      2.065434      0.037923
  H       0.524854      2.325557      0.887205
  H       0.754833      2.394893     -0.634499
  O      -0.205512     -1.928465     -0.158719
  H      -0.578911     -2.192288     -1.010480
  H      -0.823054     -2.256574      0.508835
  O      -0.125538     -0.033918      2.231032
  H      -0.875099      0.503668      2.512651
  H       0.648497      0.422289      2.581738
  O       0.058820      0.183017     -2.356059
  H      -0.649603     -0.368068     -2.709182
  H       0.871825     -0.259073     -2.627528
19
Coordinates from ORCA-job cu_aquo6 E -2098.401035272475
  Cu     -0.031616      0.068810     -0.061070
  O       1.966685     -0.153048      0.007873
  H       2.420756      0.614529     -0.364602
  H       2.243577     -0.905797     -0.531587
  O      -2.029234      0.290383     -0.129964
  H      -2.483655     -0.477800      0.240868
  H      -2.304427      1.041585      0.412591
  O       0.142950      2.065264      0.037945
  H       0.524408      2.325029      0.887357
  H       0.754351      2.394926     -0.634458
  O      -0.203995     -1.928540     -0.158766
  H      -0.576401     -2.191137     -1.011332
  H      -0.822430     -2.256650      0.507940
  O      -0.128816     -0.033401      2.231244
  H      -0.874245      0.510833      2.510932
  H       0.648750      0.416059      2.582738
  O       0.061175      0.182063     -2.355678
  H      -0.654963     -0.358897     -2.708829
  H       0.868043     -0.269678     -2.629458
19
Coordinates from ORCA-job cu_aquo6 E -2098.401038784226
  Cu     -0.030268      0.068480     -0.060581
  O       1.968356     -0.151921      0.009459
  H       2.421061      0.615196     -0.365690
  H       2.245797     -0.905742     -0.528244
  O      -2.028495      0.289211     -0.130279
  H      -2.481591     -0.478241      0.243720
  H      -2.302800      1.041742      0.410909
  O       0.143369      2.065213      0.037236
  H       0.524124      2.325133      0.886917
  H       0.755384      2.394253     -0.634907
  O      -0.201124     -1.928357     -0.158569
  H      -0.571049     -2.189864     -1.012540
  H      -0.821297     -2.256641      0.506418
  O      -0.131452     -0.034259      2.231874
  H      -0.876941      0.511576      2.508175
  H       0.645911      0.414939      2.584018
  O       0.063306      0.182290     -2.355204
  H      -0.662978     -0.345540     -2.707471
  H       0.861601     -0.282937     -2.631495
19
Coordinates from ORCA-job cu_aquo6 E -2098.401054384390
  Cu     -0.028457      0.068241     -0.059927
  O       1.970592     -0.150801      0.010957
  H       2.422547      0.615123     -0.367518
  H       2.248441     -0.906397     -0.524053
  O      -2.027694      0.287876     -0.130976
  H      -2.479787     -0.478419      0.246571
  H      -2.302135      1.042320      0.407461
  O       0.143967      2.064906      0.036961
  H       0.524064      2.325560      0.886707
  H       0.756176      2.393707     -0.635119
  O      -0.197439     -1.927711     -0.158321
  H      -0.564453     -2.189051     -1.013581
  H      -0.819115     -2.256681      0.504901
  O      -0.133629     -0.035432      2.232630
  H      -0.880383      0.510793      2.504756
  H       0.642335      0.415361      2.585808
  O       0.065572      0.182818     -2.354398
  H      -0.672720     -0.328810     -2.705568
  H       0.853031     -0.298871     -2.633546
19
Coordinates from ORCA-job cu_aquo6 E -2098.401016848952
  Cu     -0.028069      0.068455     -0.059813
  O       1.970639     -0.150492      0.010655
  H       2.423035      0.614625     -0.368891
  H       2.248328     -0.907109     -0.522994
  O      -2.027173      0.287879     -0.130926
  H      -2.479594     -0.477962      0.247111
  H      -2.302644      1.043094      0.405887
  O       0.144321      2.065232      0.037123
  H       0.524425      2.326172      0.886779
  H       0.756518      2.393990     -0.634991
  O      -0.197192     -1.927573     -0.158571
  H      -0.564059     -2.189348     -1.013763
  H      -0.818830     -2.256853      0.504550
  O      -0.132460     -0.036075      2.232905
  H      -0.881531      0.507193      2.504675
  H       0.641337      0.418227      2.586377
  O       0.065188      0.183107     -2.354364
  H      -0.673492     -0.328285     -2.705097
  H       0.852167     -0.299743     -2.632907
19
Coordinates from ORCA-job cu_aquo6 E -2098.401043895650
  Cu     -0.025389      0.069342     -0.059257
  O       1.972262     -0.148009      0.011046
  H       2.426138      0.614542     -0.371790
  H       2.250265     -0.907960     -0.517684
  O      -2.024669      0.286949     -0.132395
  H      -2.478027     -0.477363      0.247471
  H      -2.305097      1.044965      0.397789
  O       0.145311      2.066308      0.038192
  H       0.524886      2.328486      0.887715
  H       0.757519      2.395506     -0.633718
  O      -0.193847     -1.926577     -0.159613
  H      -0.558544     -2.189595     -1.015377
  H      -0.816353     -2.257715      0.501834
  O      -0.130697     -0.038321      2.234379
  H      -0.884370      0.500636      2.502341
  H       0.638050      0.422686      2.590391
  O       0.066492      0.182680     -2.353602
  H      -0.684327     -0.312270     -2.702201
  H       0.841311     -0.319755     -2.631774
19
Coordinates from ORCA-job cu_aquo6 E -2098.401043681290
  Cu     -0.026297      0.069216     -0.059730
  O       1.971643     -0.148907      0.011128
  H       2.425355      0.615710     -0.367776
  H       2.249686     -0.906074     -0.521543
  O      -2.025457      0.287750     -0.132455
  H      -2.478968     -0.478145      0.244087
  H      -2.304663      1.043273      0.401936
  O       0.144711      2.066005      0.038036
  H       0.524543      2.327629      0.887615
  H       0.756768      2.395432     -0.633899
  O      -0.195255     -1.926809     -0.159294
  H      -0.561351     -2.189366     -1.014600
  H      -0.817111     -2.257414      0.503006
  O      -0.131557     -0.037023      2.233731
  H      -0.881736      0.505772      2.503605
  H       0.640590      0.418566      2.589285
  O       0.066609      0.181682     -2.353830
  H      -0.681205     -0.317041     -2.703481
  H       0.844609     -0.315723     -2.632077
19
Coordinates from ORCA-job cu_aquo6 E -2098.401059344364
  Cu     -0.026200      0.069318     -0.060147
  O       1.971775     -0.149046      0.011627
  H       2.425453      0.617421     -0.363567
  H       2.250105     -0.903744     -0.524376
  O      -2.025277      0.288398     -0.132997
  H      -2.479097     -0.479122      0.239888
  H      -2.304318      1.041482      0.404919
  O       0.144539      2.066142      0.038123
  H       0.524751      2.327227      0.887700
  H       0.756387      2.395846     -0.633869
  O      -0.195541     -1.926936     -0.159293
  H      -0.562842     -2.188781     -1.014302
  H      -0.816892     -2.257441      0.503516
  O      -0.132245     -0.036175      2.233329
  H      -0.880490      0.508948      2.503797
  H       0.641660      0.416030      2.589304
  O       0.067656      0.180113     -2.353704
  H      -0.682234     -0.315101     -2.703869
  H       0.843726     -0.320046     -2.632333
19
Coordinates from ORCA-job cu_aquo6 E -2098.401070922177
  Cu     -0.025226      0.069817     -0.061359
  O       1.972850     -0.149954      0.013364
  H       2.427128      0.622318     -0.349033
  H       2.251742     -0.896207     -0.534017
  O      -2.024278      0.291141     -0.134849
  H      -2.479737     -0.481853      0.224586
  H      -2.303633      1.035594      0.414772
  O       0.144595      2.066554      0.037741
  H       0.525154      2.326718      0.887452
  H       0.756362      2.396788     -0.634077
  O      -0.195610     -1.926660     -0.158853
  H      -0.566042     -2.187104     -1.012959
  H      -0.815327     -2.257160      0.505456
  O      -0.133004     -0.034247      2.232322
  H      -0.878568      0.513623      2.504446
  H       0.643419      0.412502      2.589570
  O       0.071164      0.175385     -2.353245
  H      -0.688023     -0.304394     -2.704746
  H       0.837948     -0.338327     -2.632826
19
Coordinates from ORCA-job cu_aquo6 E -2098.401043568927
  Cu     -0.024929      0.069796     -0.060935
  O       1.973016     -0.149715      0.012536
  H       2.427113      0.620322     -0.354853
  H       2.251683     -0.899263     -0.530473
  O      -2.023847      0.290749     -0.133733
  H      -2.478968     -0.480573      0.229692
  H      -2.303089      1.037865      0.412321
  O       0.145337      2.066715      0.037549
  H       0.525555      2.327053      0.887360
  H       0.757606      2.396274     -0.634142
  O      -0.195373     -1.926752     -0.159008
  H      -0.564868     -2.187185     -1.013508
  H      -0.815608     -2.257189      0.504840
  O      -0.131060     -0.035416      2.232722
  H      -0.882813      0.504397      2.503933
  H       0.640182      0.420761      2.589329
  O       0.069946      0.177152     -2.353508
  H      -0.687473     -0.306120     -2.704059
  H       0.838504     -0.334337     -2.632319
19
Coordinates from ORCA-job cu_aquo6 E -2098.401032506283
  Cu     -0.024416      0.070038     -0.060830
  O       1.973322     -0.149381      0.012504
  H       2.427703      0.619739     -0.356461
  H       2.252233     -0.900113     -0.528753
  O      -2.023135      0.290808     -0.133791
  H      -2.478538     -0.479987      0.230369
  H      -2.302967      1.038725      0.410847
  O       0.145604      2.067154      0.037336
  H       0.525297      2.327734      0.887312
  H       0.758353      2.396425     -0.634054
  O      -0.194705     -1.926705     -0.159010
  H      -0.563933     -2.187163     -1.013609
  H      -0.814925     -2.257260      0.504786
  O      -0.129677     -0.036287      2.232870
  H      -0.884953      0.498630      2.504012
  H       0.638536      0.425109      2.589335
  O       0.070327      0.177593     -2.353625
  H      -0.689453     -0.302294     -2.703733
  H       0.836242     -0.338233     -2.631758
19
Coordinates from ORCA-job cu_aquo6 E -2098.401049539998
  Cu     -0.024157      0.070319     -0.060898
  O       1.973487     -0.149171      0.012549
  H       2.428262      0.619818     -0.356215
  H       2.252873     -0.899927     -0.528441
  O      -2.022677      0.290949     -0.134135
  H      -2.478468     -0.479999      0.229219
  H      -2.303080      1.038626      0.410551
  O       0.145675      2.067456      0.037284
  H       0.524471      2.328097      0.887640
  H       0.759122      2.396720     -0.633461
  O      -0.194414     -1.926610     -0.159009
  H      -0.563665     -2.187051     -1.013606
  H      -0.814572     -2.257075      0.504885
  O      -0.128439     -0.036530      2.232843
  H      -0.885676      0.495346      2.504517
  H       0.638088      0.427917      2.588982
  O       0.071247      0.177369     -2.353829
  H      -0.691212     -0.298215     -2.703985
  H       0.834050     -0.343506     -2.631144
19
Coordinates from ORCA-job cu_aquo6 E -2098.401050338614
  Cu     -0.024071      0.070686     -0.061118
  O       1.973285     -0.148891      0.012798
  H       2.428617      0.620134     -0.355202
  H       2.253455     -0.899489     -0.528020
  O      -2.021996      0.291047     -0.134767
  H      -2.478285     -0.480207      0.227265
  H      -2.302730      1.038223      0.410410
  O       0.145687      2.068035      0.037093
  H       0.523264      2.328918      0.887919
  H       0.759929      2.397369     -0.632877
  O      -0.193989     -1.926757     -0.158910
  H      -0.564120     -2.187475     -1.013036
  H      -0.813468     -2.256859      0.505803
  O      -0.126764     -0.036892      2.232450
  H      -0.886389      0.490742      2.505755
  H       0.637729      0.431386      2.587997
  O       0.073384      0.177192     -2.354181
  H      -0.693503     -0.290618     -2.705202
  H       0.830877     -0.352009     -2.630430
19
Coordinates from ORCA-job cu_aquo6 E -2098.401048004182
  Cu     -0.024462      0.070670     -0.061211
  O       1.972974     -0.148886      0.012879
  H       2.428379      0.620532     -0.354190
  H       2.253399     -0.898953     -0.528527
  O      -2.022305      0.290861     -0.135011
  H      -2.478560     -0.480624      0.226588
  H      -2.302907      1.037711      0.410694
  O       0.145434      2.067940      0.037141
  H       0.522459      2.328817      0.888206
  H       0.759973      2.397479     -0.632451
  O      -0.194244     -1.926809     -0.158903
  H      -0.564597     -2.187714     -1.012871
  H      -0.813643     -2.256667      0.506000
  O      -0.126903     -0.036501      2.232279
  H      -0.885041      0.492874      2.506346
  H       0.638978      0.429778      2.587458
  O       0.074017      0.176926     -2.354335
  H      -0.693146     -0.289950     -2.705981
  H       0.831108     -0.352950     -2.630365
19
Coordinates from ORCA-job cu_aquo6 E -2098.401023663399
  Cu     -0.025485      0.070528     -0.061360
  O       1.972305     -0.149008      0.012881
  H       2.427752      0.621425     -0.351967
  H       2.253149     -0.897751     -0.530105
  O      -2.023328      0.290384     -0.135364
  H      -2.479354     -0.481592      0.225508
  H      -2.303602      1.036543      0.411466
  O       0.144916      2.067507      0.037297
  H       0.520592      2.328256      0.888980
  H       0.760252      2.397495     -0.631317
  O      -0.195029     -1.926823     -0.158951
  H      -0.565731     -2.188130     -1.012648
  H      -0.814367     -2.256229      0.506245
  O      -0.127290     -0.035363      2.231918
  H      -0.881782      0.498409      2.507506
  H       0.641979      0.426050      2.586107
  O       0.075158      0.176280     -2.354617
  H      -0.691708     -0.289955     -2.707724
  H       0.832489     -0.353493     -2.630110
19
Coordinates from ORCA-job cu_aquo6 E -2098.401066280544
  Cu     -0.025479      0.070487     -0.061299
  O       1.972267     -0.148966      0.012892
  H       2.427644      0.621310     -0.352388
  H       2.253076     -0.897973     -0.529758
  O      -2.023259      0.290326     -0.135307
  H      -2.479231     -0.481414      0.226127
  H      -2.303493      1.036831      0.411075
  O       0.144827      2.067584      0.037204
  H       0.520468      2.328382      0.888892
  H       0.760218      2.397516     -0.631399
  O      -0.194933     -1.926892     -0.159023
  H      -0.565725     -2.188118     -1.012705
  H      -0.814197     -2.256390      0.506195
  O      -0.127295     -0.035508      2.231955
  H      -0.881930      0.498060      2.507537
  H       0.641855      0.426136      2.586093
  O       0.075244      0.176379     -2.354585
  H      -0.691680     -0.289740     -2.707716
  H       0.832536     -0.353477     -2.630043
