19
Coordinates from ORCA-job pb_aquo6 E -651.021142075063
  Pb      0.000549     -0.044615     -0.016455
  O       2.499156      0.180972      0.032443
  H       3.084166     -0.139356     -0.663041
  H       2.948030      0.068439      0.877817
  O      -2.501855     -0.236063     -0.056273
  H      -3.083191      0.080806      0.643768
  H      -2.955390     -0.120939     -0.898846
  O       0.041270      2.457366      0.063448
  H       0.888794      2.893526     -0.077520
  H      -0.655587      3.042876     -0.253097
  O      -0.023780     -2.550605     -0.115447
  H       0.680326     -3.128941      0.198160
  H      -0.865410     -2.998899      0.022892
  O       0.161074      0.059715      2.484061
  H      -0.146401     -0.631047      3.081447
  H       0.029939      0.911194      2.915825
  O      -0.139179     -0.154792     -2.516578
  H       0.167077      0.532632     -3.118382
  H      -0.011770     -1.008610     -2.944633
19
Coordinates from ORCA-job pb_aquo6 E -651.023879487217
  Pb      0.001985     -0.046178     -0.016483
  O       2.534131      0.195556      0.040858
  H       3.122677     -0.127073     -0.647866
  H       2.976115      0.077096      0.887322
  O      -2.535069     -0.251611     -0.065483
  H      -3.120148      0.067797      0.627602
  H      -2.981220     -0.130502     -0.909303
  O       0.048635      2.487825      0.071485
  H       0.895819      2.921810     -0.071016
  H      -0.645122      3.075878     -0.243029
  O      -0.034720     -2.587593     -0.128008
  H       0.662532     -3.170088      0.186905
  H      -0.877671     -3.028059      0.017441
  O       0.177107      0.070656      2.518321
  H      -0.132681     -0.612555      3.119912
  H       0.040075      0.923608      2.941995
  O      -0.148855     -0.161133     -2.546841
  H       0.156082      0.522930     -3.151235
  H      -0.021854     -1.014705     -2.972988
19
Coordinates from ORCA-job pb_aquo6 E -651.025526646640
  Pb      0.003979     -0.048441     -0.016495
  O       2.565387      0.213132      0.049892
  H       3.159256     -0.115064     -0.632396
  H       3.002375      0.084940      0.897985
  O      -2.563466     -0.270066     -0.075728
  H      -3.154069      0.055327      0.610652
  H      -3.004144     -0.139010     -0.921381
  O       0.057137      2.516323      0.083024
  H       0.903555      2.950700     -0.062118
  H      -0.633315      3.108942     -0.229762
  O      -0.045956     -2.622367     -0.143618
  H       0.645201     -3.210455      0.175928
  H      -0.890324     -3.057001      0.013099
  O       0.195612      0.082860      2.549449
  H      -0.120000     -0.592903      3.157216
  H       0.048448      0.937840      2.966447
  O      -0.161123     -0.169223     -2.575642
  H       0.142816      0.510626     -3.184946
  H      -0.033550     -1.022502     -3.002016
19
Coordinates from ORCA-job pb_aquo6 E -651.026314812439
  Pb      0.006738     -0.051038     -0.016955
  O       2.589996      0.231550      0.055559
  H       3.185923     -0.110585     -0.619256
  H       3.023613      0.084811      0.903220
  O      -2.583360     -0.289275     -0.083749
  H      -3.176170      0.050542      0.594931
  H      -3.020310     -0.139417     -0.929056
  O       0.063328      2.538084      0.095611
  H       0.907289      2.977111     -0.053496
  H      -0.624085      3.135607     -0.216197
  O      -0.051952     -2.650422     -0.160128
  H       0.632917     -3.239941      0.172672
  H      -0.895064     -3.081356      0.017004
  O       0.214111      0.091967      2.572018
  H      -0.115665     -0.575766      3.182552
  H       0.047332      0.946597      2.984094
  O      -0.173371     -0.176222     -2.597944
  H       0.129876      0.499306     -3.213186
  H      -0.043326     -1.027895     -3.028106
19
Coordinates from ORCA-job pb_aquo6 E -651.026661622561
  Pb      0.009519     -0.053462     -0.017776
  O       2.605293      0.246963      0.056553
  H       3.197459     -0.114624     -0.612469
  H       3.035317      0.077632      0.902665
  O      -2.593231     -0.304760     -0.087658
  H      -3.182210      0.055030      0.585112
  H      -3.026337     -0.131972     -0.931403
  O       0.065715      2.548873      0.105806
  H       0.906332      2.994035     -0.047200
  H      -0.620048      3.149146     -0.205878
  O      -0.051530     -2.666567     -0.173448
  H       0.629214     -3.250992      0.178464
  H      -0.891747     -3.094137      0.027960
  O       0.228391      0.095469      2.583505
  H      -0.120984     -0.566654      3.190461
  H       0.037695      0.948127      2.990951
  O      -0.182450     -0.180580     -2.610586
  H       0.120507      0.492016     -3.229934
  H      -0.049086     -1.029883     -3.045533
19
Coordinates from ORCA-job pb_aquo6 E -651.026979016245
  Pb      0.012735     -0.056310     -0.018890
  O       2.616211      0.262586      0.053744
  H       3.197376     -0.126559     -0.610623
  H       3.040026      0.063961      0.897524
  O      -2.597310     -0.319579     -0.088383
  H      -3.174867      0.068519      0.579721
  H      -3.023857     -0.116916     -0.929728
  O       0.065280      2.552986      0.115551
  H       0.901706      3.005596     -0.041737
  H      -0.620362      3.153817     -0.196855
  O      -0.045780     -2.676541     -0.186140
  H       0.632610     -3.247730      0.193279
  H      -0.881757     -3.098425      0.046344
  O       0.241366      0.094528      2.589008
  H      -0.135816     -0.563940      3.184532
  H       0.019604      0.943925      2.989294
  O      -0.190096     -0.183634     -2.618300
  H       0.113051      0.487363     -3.240044
  H      -0.052302     -1.029987     -3.058708
19
Coordinates from ORCA-job pb_aquo6 E -651.027405554245
  Pb      0.016772     -0.060211     -0.020213
  O       2.623558      0.280219      0.046153
  H       3.182066     -0.148747     -0.614575
  H       3.035741      0.042044      0.886519
  O      -2.595653     -0.334979     -0.084891
  H      -3.149385      0.094205      0.579701
  H      -3.009816     -0.091641     -0.922702
  O       0.061583      2.550162      0.125886
  H       0.892597      3.011926     -0.036578
  H      -0.626141      3.148317     -0.188615
  O      -0.033384     -2.681343     -0.199204
  H       0.644506     -3.226118      0.220479
  H      -0.863323     -3.092122      0.074995
  O       0.253922      0.087847      2.588874
  H      -0.163663     -0.569167      3.160235
  H      -0.009973      0.932153      2.976283
  O      -0.196628     -0.185827     -2.621480
  H       0.107619      0.485411     -3.243186
  H      -0.052580     -1.028468     -3.068092
19
Coordinates from ORCA-job pb_aquo6 E -651.028026339429
  Pb      0.020415     -0.064586     -0.021025
  O       2.622735      0.293998      0.034113
  H       3.147269     -0.177659     -0.626402
  H       3.018202      0.016908      0.871192
  O      -2.586281     -0.344816     -0.075569
  H      -3.103784      0.128841      0.589053
  H      -2.982336     -0.060717     -0.909953
  O       0.054418      2.538134      0.133424
  H       0.880294      3.007912     -0.033902
  H      -0.638159      3.129001     -0.185028
  O      -0.015796     -2.677190     -0.207412
  H       0.664825     -3.183006      0.256131
  H      -0.839860     -3.071228      0.108013
  O       0.260418      0.074327      2.580643
  H      -0.200658     -0.585612      3.115271
  H      -0.045618      0.913173      2.949757
  O      -0.198746     -0.186333     -2.616693
  H       0.108157      0.488086     -3.234044
  H      -0.047676     -1.025575     -3.067977
19
Coordinates from ORCA-job pb_aquo6 E -651.028966631406
  Pb      0.022916     -0.069480     -0.020753
  O       2.611170      0.300774      0.016870
  H       3.085448     -0.212961     -0.649928
  H       2.983178     -0.008281      0.852845
  O      -2.568369     -0.344504     -0.057855
  H      -3.031497      0.173702      0.613332
  H      -2.938460     -0.025421     -0.890964
  O       0.043170      2.515645      0.136438
  H       0.864992      2.990432     -0.035221
  H      -0.657868      3.092124     -0.189130
  O       0.007419     -2.662816     -0.207185
  H       0.696423     -3.112165      0.299827
  H      -0.813474     -3.032529      0.142508
  O       0.256450      0.051628      2.563351
  H      -0.247290     -0.618730      3.043395
  H      -0.085624      0.886834      2.906876
  O      -0.194077     -0.185152     -2.602026
  H       0.118379      0.496492     -3.208199
  H      -0.035066     -1.021936     -3.054590
19
Coordinates from ORCA-job pb_aquo6 E -651.029487027272
  Pb      0.025746     -0.075142     -0.020782
  O       2.612134      0.313109      0.003654
  H       3.035197     -0.241150     -0.664788
  H       2.956290     -0.026373      0.839749
  O      -2.563355     -0.349028     -0.042683
  H      -2.969530      0.212245      0.630515
  H      -2.902626      0.003320     -0.875451
  O       0.035445      2.505225      0.143068
  H       0.853909      2.982896     -0.033547
  H      -0.673018      3.067705     -0.189663
  O       0.025696     -2.664688     -0.211746
  H       0.718687     -3.055360      0.336425
  H      -0.793388     -3.004619      0.171050
  O       0.257917      0.032846      2.560265
  H      -0.286818     -0.643324      2.983674
  H      -0.118374      0.865615      2.872684
  O      -0.193771     -0.187445     -2.598508
  H       0.124826      0.500326     -3.193889
  H      -0.027147     -1.022496     -3.050435
19
Coordinates from ORCA-job pb_aquo6 E -651.029812943931
  Pb      0.026772     -0.078735     -0.021014
  O       2.618740      0.321094     -0.002435
  H       3.005787     -0.253253     -0.674173
  H       2.940406     -0.027634      0.837779
  O      -2.568733     -0.349120     -0.032284
  H      -2.933717      0.233439      0.644859
  H      -2.883860      0.014072     -0.868915
  O       0.032404      2.505282      0.147149
  H       0.850686      2.980996     -0.032944
  H      -0.680810      3.056894     -0.192218
  O       0.033560     -2.675461     -0.213967
  H       0.731432     -3.024831      0.353476
  H      -0.788932     -2.991450      0.179533
  O       0.257320      0.021464      2.567980
  H      -0.308118     -0.660276      2.950875
  H      -0.129999      0.857199      2.855654
  O      -0.193882     -0.190755     -2.601818
  H       0.131455      0.501098     -3.188036
  H      -0.022689     -1.026363     -3.049912
19
Coordinates from ORCA-job pb_aquo6 E -651.029863445649
  Pb      0.029659     -0.082498     -0.022731
  O       2.635365      0.338371     -0.006173
  H       2.993182     -0.264144     -0.670462
  H       2.934747     -0.034026      0.833219
  O      -2.580560     -0.360702     -0.027065
  H      -2.911646      0.250445      0.643328
  H      -2.872220      0.026534     -0.862464
  O       0.031263      2.510402      0.156629
  H       0.847345      2.988200     -0.028659
  H      -0.684352      3.055997     -0.187708
  O       0.039640     -2.695180     -0.225579
  H       0.732467     -3.009541      0.369107
  H      -0.780300     -2.987003      0.193474
  O       0.268017      0.015433      2.582387
  H      -0.326108     -0.661095      2.931517
  H      -0.143398      0.848782      2.845375
  O      -0.200746     -0.194885     -2.611418
  H       0.129737      0.498133     -3.193605
  H      -0.024271     -1.029565     -3.059583
19
Coordinates from ORCA-job pb_aquo6 E -651.029949587183
  Pb      0.028368     -0.080518     -0.023271
  O       2.636219      0.334032     -0.001919
  H       3.007458     -0.254956     -0.670016
  H       2.941782     -0.023797      0.840699
  O      -2.584576     -0.356677     -0.030402
  H      -2.930306      0.240424      0.644188
  H      -2.883970      0.015290     -0.869169
  O       0.033553      2.515068      0.154057
  H       0.851394      2.990157     -0.030495
  H      -0.679929      3.063277     -0.190220
  O       0.033260     -2.697232     -0.223281
  H       0.729626     -3.026930      0.357551
  H      -0.790610     -2.996248      0.180818
  O       0.265560      0.020126      2.586094
  H      -0.315602     -0.658785      2.950039
  H      -0.129586      0.857961      2.856853
  O      -0.200279     -0.194318     -2.613888
  H       0.131025      0.496928     -3.197505
  H      -0.025567     -1.030145     -3.060542
19
Coordinates from ORCA-job pb_aquo6 E -651.029962454006
  Pb      0.028451     -0.080071     -0.023774
  O       2.636090      0.333826     -0.001762
  H       3.009590     -0.254720     -0.669038
  H       2.942301     -0.022965      0.840994
  O      -2.584613     -0.356801     -0.030394
  H      -2.932742      0.239887      0.643390
  H      -2.885095      0.014052     -0.869197
  O       0.033397      2.515005      0.154321
  H       0.851148      2.990094     -0.030979
  H      -0.679415      3.063719     -0.190760
  O       0.032955     -2.697179     -0.223531
  H       0.728676     -3.029073      0.356946
  H      -0.790830     -2.997021      0.179985
  O       0.265926      0.020138      2.585996
  H      -0.315520     -0.657423      2.952096
  H      -0.127398      0.858402      2.857891
  O      -0.200876     -0.193664     -2.613942
  H       0.131624      0.496851     -3.197866
  H      -0.025851     -1.029399     -3.060784
19
Coordinates from ORCA-job pb_aquo6 E -651.030053989053
  Pb      0.029506     -0.076506     -0.028991
  O       2.636308      0.333387     -0.002012
  H       3.022927     -0.256169     -0.661204
  H       2.942604     -0.014393      0.844297
  O      -2.585830     -0.357322     -0.025985
  H      -2.946967      0.240411      0.640340
  H      -2.890783      0.003547     -0.867304
  O       0.030215      2.514882      0.158579
  H       0.847374      2.988237     -0.036267
  H      -0.677057      3.064538     -0.197927
  O       0.032345     -2.698646     -0.225752
  H       0.722812     -3.041415      0.355282
  H      -0.792650     -3.000370      0.173378
  O       0.268820      0.015690      2.585992
  H      -0.321475     -0.648595      2.962674
  H      -0.106531      0.860417      2.862683
  O      -0.207406     -0.187557     -2.616111
  H       0.140999      0.496470     -3.199356
  H      -0.027392     -1.022945     -3.062725
19
Coordinates from ORCA-job pb_aquo6 E -651.030155391741
  Pb      0.030838     -0.073084     -0.035274
  O       2.636623      0.333424     -0.004037
  H       3.031007     -0.262210     -0.653229
  H       2.937942     -0.004623      0.847925
  O      -2.586040     -0.356841     -0.016260
  H      -2.953678      0.246864      0.641237
  H      -2.891523     -0.007221     -0.862023
  O       0.024264      2.514566      0.165228
  H       0.841195      2.983664     -0.043062
  H      -0.677533      3.060955     -0.208337
  O       0.034272     -2.699912     -0.227402
  H       0.719168     -3.046471      0.358236
  H      -0.793521     -2.999084      0.167528
  O       0.270808      0.005593      2.584228
  H      -0.335268     -0.642295      2.964606
  H      -0.082576      0.859399      2.861798
  O      -0.215766     -0.180079     -2.619817
  H       0.155580      0.496851     -3.198100
  H      -0.027974     -1.015837     -3.063654
19
Coordinates from ORCA-job pb_aquo6 E -651.030300472138
  Pb      0.032936     -0.068302     -0.045712
  O       2.637037      0.333190     -0.008449
  H       3.037850     -0.276491     -0.640423
  H       2.925693      0.011292      0.854271
  O      -2.583492     -0.354336      0.004841
  H      -2.954623      0.263068      0.647468
  H      -2.886465     -0.024237     -0.849691
  O       0.011457      2.514776      0.178541
  H       0.828937      2.972635     -0.054950
  H      -0.682037      3.049738     -0.227892
  O       0.039908     -2.699887     -0.228229
  H       0.716042     -3.045163      0.368200
  H      -0.794075     -2.991179      0.159427
  O       0.271683     -0.016355      2.577159
  H      -0.364443     -0.635307      2.956596
  H      -0.042763      0.853365      2.852695
  O      -0.231174     -0.166751     -2.628445
  H       0.183383      0.498184     -3.192532
  H      -0.028034     -1.004582     -3.063284
19
Coordinates from ORCA-job pb_aquo6 E -651.030492141394
  Pb      0.033798     -0.066383     -0.051523
  O       2.637402      0.332248     -0.011299
  H       3.037145     -0.288163     -0.633174
  H       2.915756      0.020140      0.858619
  O      -2.578066     -0.350464      0.021647
  H      -2.945593      0.277512      0.655762
  H      -2.877882     -0.033184     -0.839118
  O       0.000761      2.516733      0.188355
  H       0.820012      2.962382     -0.062466
  H      -0.689016      3.037964     -0.241651
  O       0.045080     -2.696517     -0.225818
  H       0.716614     -3.035433      0.378914
  H      -0.793951     -2.980977      0.156422
  O       0.269350     -0.034243      2.567417
  H      -0.386494     -0.635699      2.940973
  H      -0.020144      0.845283      2.840101
  O      -0.241960     -0.158421     -2.636940
  H       0.202414      0.499991     -3.185877
  H      -0.027406     -0.999109     -3.060753
19
Coordinates from ORCA-job pb_aquo6 E -651.030835580762
  Pb      0.034167     -0.065470     -0.058484
  O       2.641086      0.330590     -0.013288
  H       3.033626     -0.306333     -0.622326
  H       2.903035      0.030955      0.866434
  O      -2.564166     -0.341313      0.049371
  H      -2.919355      0.303596      0.672790
  H      -2.859847     -0.042936     -0.820145
  O      -0.018571      2.525031      0.205007
  H       0.806329      2.942663     -0.072382
  H      -0.706034      3.014437     -0.262773
  O       0.053343     -2.686472     -0.217491
  H       0.719057     -3.010356      0.400707
  H      -0.793831     -2.959987      0.155737
  O       0.261983     -0.065107      2.544446
  H      -0.421477     -0.643540      2.903727
  H       0.007138      0.826824      2.812983
  O      -0.260724     -0.147549     -2.657166
  H       0.229302      0.504052     -3.173247
  H      -0.027241     -0.995425     -3.054310
19
Coordinates from ORCA-job pb_aquo6 E -651.031097314488
  Pb      0.035426     -0.063162     -0.067798
  O       2.649495      0.331462     -0.011790
  H       3.042878     -0.318932     -0.605752
  H       2.897896      0.044354      0.876275
  O      -2.552515     -0.334218      0.072862
  H      -2.903411      0.325229      0.683321
  H      -2.850038     -0.055754     -0.802760
  O      -0.036623      2.534910      0.223240
  H       0.793231      2.923338     -0.082436
  H      -0.718763      2.993017     -0.283357
  O       0.058136     -2.680007     -0.212310
  H       0.715016     -2.997150      0.418625
  H      -0.795183     -2.945860      0.152517
  O       0.257219     -0.091764      2.524187
  H      -0.451779     -0.642481      2.877629
  H       0.038737      0.809943      2.792930
  O      -0.283922     -0.134804     -2.680925
  H       0.252824      0.505678     -3.164439
  H      -0.030806     -0.990141     -3.050428
19
Coordinates from ORCA-job pb_aquo6 E -651.031461930982
  Pb      0.037988     -0.058564     -0.082460
  O       2.664936      0.334324     -0.003452
  H       3.066539     -0.327635     -0.578850
  H       2.900960      0.063577      0.892957
  O      -2.531472     -0.322182      0.099804
  H      -2.882009      0.351499      0.695056
  H      -2.843861     -0.072968     -0.779507
  O      -0.060762      2.552188      0.247745
  H       0.776238      2.890898     -0.096181
  H      -0.734638      2.957992     -0.311837
  O       0.060890     -2.669072     -0.204093
  H       0.705058     -2.985237      0.440622
  H      -0.798986     -2.931464      0.147711
  O       0.248490     -0.124713      2.491998
  H      -0.488955     -0.637671      2.844919
  H       0.080694      0.785048      2.769800
  O      -0.320704     -0.116357     -2.720779
  H       0.278192      0.506766     -3.151464
  H      -0.040781     -0.982768     -3.042400
19
Coordinates from ORCA-job pb_aquo6 E -651.031668046139
  Pb      0.041871     -0.052678     -0.096303
  O       2.679054      0.339583      0.008769
  H       3.092378     -0.324866     -0.555497
  H       2.911776      0.078896      0.908607
  O      -2.510762     -0.311462      0.115645
  H      -2.863563      0.367691      0.703763
  H      -2.847610     -0.085066     -0.760529
  O      -0.074422      2.566199      0.261277
  H       0.767493      2.862860     -0.107363
  H      -0.743063      2.927557     -0.332990
  O       0.059409     -2.660737     -0.198473
  H       0.694871     -2.982883      0.452447
  H      -0.802978     -2.927384      0.143476
  O       0.238618     -0.144110      2.465408
  H      -0.514195     -0.632916      2.821006
  H       0.104585      0.766008      2.759033
  O      -0.350470     -0.103366     -2.753519
  H       0.287465      0.507966     -3.141720
  H      -0.052638     -0.977633     -3.033447
19
Coordinates from ORCA-job pb_aquo6 E -651.031742248033
  Pb      0.045725     -0.047979     -0.105792
  O       2.685480      0.344851      0.016990
  H       3.106840     -0.318541     -0.542632
  H       2.918043      0.088952      0.918131
  O      -2.501856     -0.307203      0.121707
  H      -2.855884      0.372771      0.708316
  H      -2.855694     -0.092645     -0.750557
  O      -0.075311      2.570443      0.263240
  H       0.767724      2.851776     -0.114326
  H      -0.742129      2.914668     -0.343049
  O       0.056818     -2.659870     -0.198431
  H       0.689204     -2.987263      0.453050
  H      -0.805981     -2.930495      0.139092
  O       0.232720     -0.149506      2.455838
  H      -0.524872     -0.630168      2.812398
  H       0.113354      0.759042      2.760366
  O      -0.363861     -0.098237     -2.766016
  H       0.287068      0.508298     -3.139299
  H      -0.059570     -0.975234     -3.029436
19
Coordinates from ORCA-job pb_aquo6 E -651.031783799184
  Pb      0.051924     -0.042230     -0.117004
  O       2.691494      0.354823      0.029225
  H       3.119936     -0.304294     -0.530190
  H       2.927118      0.099435      0.929251
  O      -2.492253     -0.303533      0.125514
  H      -2.841903      0.375451      0.716082
  H      -2.870306     -0.097235     -0.738268
  O      -0.066928      2.571280      0.256607
  H       0.776523      2.846245     -0.121034
  H      -0.737605      2.903928     -0.350363
  O       0.051914     -2.660989     -0.200422
  H       0.684483     -2.992986      0.448710
  H      -0.809123     -2.938018      0.136050
  O       0.224138     -0.150731      2.447935
  H      -0.534317     -0.633472      2.799800
  H       0.107977      0.752797      2.767399
  O      -0.373368     -0.099237     -2.773207
  H       0.276543      0.509918     -3.140430
  H      -0.068426     -0.977493     -3.026062
19
Coordinates from ORCA-job pb_aquo6 E -651.031800414024
  Pb      0.067948     -0.029549     -0.147453
  O       2.701221      0.376329      0.051094
  H       3.143094     -0.286209     -0.493864
  H       2.927088      0.132966      0.957770
  O      -2.468556     -0.297061      0.151610
  H      -2.806822      0.391486      0.737859
  H      -2.887492     -0.120049     -0.699834
  O      -0.058039      2.569910      0.256880
  H       0.783325      2.830308     -0.143265
  H      -0.721254      2.876341     -0.375278
  O       0.046914     -2.665631     -0.207456
  H       0.673900     -2.999067      0.446377
  H      -0.814944     -2.945459      0.123035
  O       0.204132     -0.167228      2.425990
  H      -0.574939     -0.628004      2.761949
  H       0.121482      0.732248      2.768336
  O      -0.405965     -0.089867     -2.791493
  H       0.272363      0.503339     -3.140847
  H      -0.085635     -0.971143     -3.021820
19
Coordinates from ORCA-job pb_aquo6 E -651.031932159870
  Pb      0.067734     -0.032701     -0.143051
  O       2.697695      0.378599      0.051819
  H       3.132957     -0.282348     -0.500213
  H       2.925596      0.128240      0.955519
  O      -2.472276     -0.300016      0.149223
  H      -2.801877      0.387814      0.741145
  H      -2.887330     -0.111892     -0.701763
  O      -0.048572      2.564399      0.248732
  H       0.791298      2.844189     -0.137285
  H      -0.719051      2.887002     -0.366268
  O       0.046505     -2.666789     -0.208743
  H       0.678792     -2.994484      0.442692
  H      -0.813682     -2.945432      0.127887
  O       0.204445     -0.163279      2.430861
  H      -0.570147     -0.637447      2.758355
  H       0.102629      0.735336      2.769339
  O      -0.395146     -0.100563     -2.781470
  H       0.262585      0.502763     -3.148663
  H      -0.084334     -0.979733     -3.028524
19
Coordinates from ORCA-job pb_aquo6 E -651.032078413610
  Pb      0.075672     -0.032950     -0.151350
  O       2.699050      0.394961      0.068142
  H       3.130911     -0.265839     -0.486620
  H       2.923180      0.140052      0.971299
  O      -2.459984     -0.299342      0.164060
  H      -2.767996      0.393780      0.761339
  H      -2.889555     -0.109460     -0.679644
  O      -0.031896      2.558103      0.239500
  H       0.804763      2.857324     -0.138317
  H      -0.708692      2.888067     -0.364065
  O       0.042586     -2.666739     -0.211882
  H       0.679752     -2.984543      0.439439
  H      -0.815851     -2.943676      0.131000
  O       0.192725     -0.172025      2.419246
  H      -0.587089     -0.653385      2.723220
  H       0.078995      0.723480      2.762925
  O      -0.399279     -0.115444     -2.782962
  H       0.244286      0.493792     -3.164928
  H      -0.093758     -0.992497     -3.040811
19
Coordinates from ORCA-job pb_aquo6 E -651.032230449320
  Pb      0.098576     -0.029449     -0.180579
  O       2.707474      0.447005      0.123457
  H       3.137684     -0.214778     -0.431200
  H       2.915779      0.185206      1.028067
  O      -2.414276     -0.290801      0.216362
  H      -2.664079      0.417424      0.822990
  H      -2.890374     -0.105162     -0.603862
  O       0.006251      2.550362      0.221218
  H       0.834743      2.887311     -0.146236
  H      -0.681940      2.885580     -0.365510
  O       0.028148     -2.661834     -0.220042
  H       0.673439     -2.955385      0.434112
  H      -0.827135     -2.932882      0.134939
  O       0.158587     -0.213404      2.373381
  H      -0.640929     -0.699580      2.613086
  H       0.027926      0.676292      2.734491
  O      -0.424600     -0.158960     -2.805383
  H       0.200836      0.455653     -3.212765
  H      -0.128291     -1.028941     -3.076934
19
Coordinates from ORCA-job pb_aquo6 E -651.032352777869
  Pb      0.096466     -0.035528     -0.179175
  O       2.707714      0.447809      0.131039
  H       3.140853     -0.213320     -0.421924
  H       2.911489      0.186491      1.037473
  O      -2.414111     -0.291943      0.222714
  H      -2.663896      0.417516      0.827829
  H      -2.883041     -0.102277     -0.600380
  O       0.003706      2.551440      0.224674
  H       0.829893      2.892596     -0.141774
  H      -0.682633      2.892776     -0.361070
  O       0.026327     -2.658915     -0.221269
  H       0.671177     -2.952646      0.433348
  H      -0.830630     -2.926457      0.133932
  O       0.162917     -0.216237      2.370221
  H      -0.638122     -0.697699      2.613962
  H       0.036025      0.673205      2.725279
  O      -0.426126     -0.162490     -2.815797
  H       0.198481      0.447150     -3.225932
  H      -0.128668     -1.037810     -3.093559
19
Coordinates from ORCA-job pb_aquo6 E -651.032497216104
  Pb      0.105266     -0.034971     -0.196422
  O       2.713310      0.469117      0.167148
  H       3.165657     -0.184583     -0.378960
  H       2.910748      0.213420      1.076597
  O      -2.394313     -0.284650      0.245174
  H      -2.637546      0.426653      0.850778
  H      -2.885613     -0.103895     -0.566814
  O       0.010680      2.556508      0.221738
  H       0.835282      2.899131     -0.147584
  H      -0.675969      2.893126     -0.365078
  O       0.013945     -2.651684     -0.226426
  H       0.657010     -2.953792      0.426260
  H      -0.844031     -2.920431      0.125560
  O       0.156719     -0.235277      2.345476
  H      -0.647378     -0.711432      2.588515
  H       0.044084      0.650288      2.713191
  O      -0.446090     -0.180233     -2.845508
  H       0.184108      0.423814     -3.255693
  H      -0.148050     -1.057450     -3.118360
19
Coordinates from ORCA-job pb_aquo6 E -651.032697177599
  Pb      0.119037     -0.033515     -0.223696
  O       2.716670      0.499834      0.223296
  H       3.200850     -0.141704     -0.309924
  H       2.903649      0.250886      1.136570
  O      -2.363944     -0.270961      0.278302
  H      -2.601023      0.440513      0.886518
  H      -2.885475     -0.101208     -0.516590
  O       0.019321      2.563681      0.215646
  H       0.842304      2.906335     -0.158594
  H      -0.668896      2.895205     -0.372208
  O      -0.002275     -2.639202     -0.237539
  H       0.636049     -2.957368      0.412779
  H      -0.861273     -2.908787      0.110296
  O       0.151443     -0.264367      2.305445
  H      -0.655742     -0.732700      2.553879
  H       0.057550      0.616171      2.691097
  O      -0.475478     -0.209329     -2.886857
  H       0.163114      0.387393     -3.297633
  H      -0.178064     -1.087217     -3.151196
19
Coordinates from ORCA-job pb_aquo6 E -651.032840863083
  Pb      0.127578     -0.034414     -0.244018
  O       2.714983      0.520342      0.265848
  H       3.222601     -0.111907     -0.256802
  H       2.890836      0.273874      1.181836
  O      -2.343064     -0.258894      0.302685
  H      -2.575985      0.451220      0.914340
  H      -2.878553     -0.091514     -0.482868
  O       0.021725      2.566129      0.209658
  H       0.843431      2.907725     -0.167478
  H      -0.668226      2.897173     -0.377369
  O      -0.011990     -2.631388     -0.249521
  H       0.621918     -2.961306      0.399770
  H      -0.872556     -2.897462      0.096637
  O       0.153440     -0.283824      2.276662
  H      -0.654773     -0.746175      2.533708
  H       0.070926      0.594157      2.670071
  O      -0.494442     -0.230635     -2.914285
  H       0.147951      0.361109     -3.325920
  H      -0.197981     -1.110549     -3.173364
19
Coordinates from ORCA-job pb_aquo6 E -651.032927880269
  Pb      0.163999     -0.038207     -0.340834
  O       2.672991      0.615132      0.461493
  H       3.270052      0.021997     -0.013251
  H       2.786811      0.371659      1.385567
  O      -2.241323     -0.199599      0.415333
  H      -2.433340      0.507194      1.045448
  H      -2.818405     -0.022546     -0.338536
  O       0.024040      2.558000      0.171586
  H       0.843722      2.906543     -0.215218
  H      -0.673239      2.900269     -0.394257
  O      -0.053219     -2.609184     -0.318764
  H       0.561301     -2.973923      0.331887
  H      -0.926079     -2.838131      0.026450
  O       0.185975     -0.368633      2.154922
  H      -0.625741     -0.809954      2.438331
  H       0.138785      0.503293      2.566001
  O      -0.565355     -0.335302     -3.015347
  H       0.088819      0.244268     -3.439792
  H      -0.281976     -1.219215     -3.261427
19
Coordinates from ORCA-job pb_aquo6 E -651.033003644860
  Pb      0.173552     -0.042867     -0.360796
  O       2.658420      0.623523      0.497120
  H       3.275652      0.041054      0.035277
  H       2.751916      0.376220      1.425277
  O      -2.221182     -0.189263      0.434227
  H      -2.409412      0.513861      1.069582
  H      -2.797238     -0.003900     -0.316701
  O       0.024507      2.551753      0.162605
  H       0.842636      2.894631     -0.226963
  H      -0.675387      2.898736     -0.399653
  O      -0.049397     -2.610373     -0.338087
  H       0.559876     -2.984083      0.312591
  H      -0.924417     -2.828095      0.008472
  O       0.190237     -0.371410      2.137349
  H      -0.620995     -0.804792      2.434431
  H       0.152970      0.499764      2.545454
  O      -0.581153     -0.344281     -3.030698
  H       0.063642      0.230284     -3.456917
  H      -0.296410     -1.237099     -3.272980
19
Coordinates from ORCA-job pb_aquo6 E -651.033167976559
  Pb      0.176195     -0.038906     -0.369167
  O       2.640948      0.635384      0.510280
  H       3.258277      0.053988      0.050169
  H       2.722768      0.382467      1.436693
  O      -2.224393     -0.176428      0.435131
  H      -2.396408      0.528821      1.071787
  H      -2.791254      0.024699     -0.319714
  O       0.030446      2.542081      0.157871
  H       0.844169      2.890941     -0.225704
  H      -0.675607      2.900348     -0.398970
  O      -0.044641     -2.613805     -0.347121
  H       0.565523     -2.977075      0.307464
  H      -0.919411     -2.818122      0.005712
  O       0.205223     -0.389994      2.136908
  H      -0.607198     -0.825727      2.425094
  H       0.165035      0.489724      2.540074
  O      -0.581968     -0.360704     -3.025289
  H       0.054432      0.214195     -3.460986
  H      -0.304315     -1.248228     -3.270644
19
Coordinates from ORCA-job pb_aquo6 E -651.033316128819
  Pb      0.187005     -0.029792     -0.373607
  O       2.631962      0.650846      0.509395
  H       3.234682      0.062301      0.040665
  H       2.701366      0.387820      1.435589
  O      -2.221596     -0.170064      0.429623
  H      -2.358697      0.544852      1.063398
  H      -2.793617      0.042281     -0.319315
  O       0.043691      2.527904      0.156129
  H       0.857923      2.891949     -0.225113
  H      -0.664364      2.886971     -0.387641
  O      -0.034238     -2.618440     -0.341361
  H       0.584175     -2.952984      0.319703
  H      -0.908758     -2.811725      0.021752
  O       0.200094     -0.408289      2.135253
  H      -0.624646     -0.847764      2.377399
  H       0.144880      0.469754      2.541447
  O      -0.587278     -0.370573     -3.008250
  H       0.038443      0.211556     -3.456210
  H      -0.313208     -1.252943     -3.259263
19
Coordinates from ORCA-job pb_aquo6 E -651.033514960040
  Pb      0.189828     -0.024596     -0.380946
  O       2.613735      0.654086      0.515835
  H       3.225675      0.069498      0.052833
  H       2.671998      0.385794      1.439341
  O      -2.226870     -0.150326      0.413651
  H      -2.362221      0.560761      1.052808
  H      -2.788174      0.077378     -0.339307
  O       0.036936      2.517701      0.157821
  H       0.851483      2.872922     -0.225678
  H      -0.673690      2.878141     -0.384021
  O      -0.024914     -2.619957     -0.342664
  H       0.591001     -2.953949      0.321365
  H      -0.900192     -2.802339      0.023799
  O       0.221912     -0.421806      2.131686
  H      -0.602832     -0.857536      2.381628
  H       0.172592      0.455992      2.536934
  O      -0.593329     -0.374620     -3.001195
  H       0.031185      0.207923     -3.450821
  H      -0.316303     -1.261408     -3.243479
19
Coordinates from ORCA-job pb_aquo6 E -651.033642120602
  Pb      0.203432     -0.020409     -0.394532
  O       2.595560      0.664785      0.534558
  H       3.220658      0.086424      0.079627
  H       2.626683      0.383427      1.458940
  O      -2.211858     -0.126229      0.396991
  H      -2.331550      0.579781      1.044913
  H      -2.770606      0.119776     -0.351257
  O       0.041162      2.507647      0.161319
  H       0.853672      2.858144     -0.225113
  H      -0.673095      2.870984     -0.374333
  O      -0.003197     -2.623727     -0.342203
  H       0.613036     -2.949031      0.325792
  H      -0.878333     -2.793386      0.029836
  O       0.225741     -0.439343      2.111341
  H      -0.606352     -0.867615      2.350041
  H       0.180889      0.430635      2.521949
  O      -0.620918     -0.385578     -2.990693
  H      -0.008496      0.197790     -3.451975
  H      -0.338608     -1.280416     -3.225608
19
Coordinates from ORCA-job pb_aquo6 E -651.033810909082
  Pb      0.200851     -0.013154     -0.390918
  O       2.590730      0.665196      0.528529
  H       3.225058      0.092275      0.078678
  H       2.614465      0.379026      1.449106
  O      -2.224513     -0.099846      0.347313
  H      -2.354188      0.594408      1.006537
  H      -2.769820      0.161492     -0.406664
  O       0.027252      2.509820      0.180136
  H       0.842950      2.851975     -0.209747
  H      -0.685884      2.876251     -0.356619
  O       0.006308     -2.623905     -0.325701
  H       0.620717     -2.950011      0.343558
  H      -0.870134     -2.788012      0.045787
  O       0.252967     -0.462811      2.104787
  H      -0.576686     -0.890011      2.354525
  H       0.218479      0.406702      2.523042
  O      -0.633966     -0.393490     -2.973940
  H      -0.020189      0.187285     -3.442211
  H      -0.346580     -1.289532     -3.196610
19
Coordinates from ORCA-job pb_aquo6 E -651.034133302186
  Pb      0.213729     -0.002233     -0.387696
  O       2.617561      0.678383      0.528130
  H       3.264312      0.113743      0.085247
  H       2.615989      0.373569      1.445192
  O      -2.219104     -0.064128      0.262786
  H      -2.354055      0.609514      0.942237
  H      -2.763142      0.215267     -0.485379
  O       0.032507      2.524054      0.214353
  H       0.847771      2.869901     -0.176560
  H      -0.680498      2.900019     -0.317880
  O       0.037189     -2.622258     -0.296063
  H       0.655890     -2.939976      0.372854
  H      -0.837570     -2.787808      0.077836
  O       0.245160     -0.500171      2.088676
  H      -0.586626     -0.933650      2.319324
  H       0.211333      0.360868      2.533135
  O      -0.688074     -0.420799     -2.944114
  H      -0.101464      0.153797     -3.445253
  H      -0.393088     -1.314434     -3.157237
19
Coordinates from ORCA-job pb_aquo6 E -651.034367393539
  Pb      0.237698      0.001799     -0.391182
  O       2.653217      0.692799      0.532835
  H       3.308080      0.135114      0.095105
  H       2.619417      0.362997      1.443383
  O      -2.202366     -0.036250      0.183085
  H      -2.329830      0.618859      0.881241
  H      -2.748861      0.265929     -0.552340
  O       0.050002      2.525057      0.245448
  H       0.856933      2.879668     -0.141668
  H      -0.665073      2.907941     -0.278431
  O       0.078799     -2.621018     -0.272681
  H       0.703572     -2.919329      0.399476
  H      -0.790359     -2.788711      0.109692
  O       0.214903     -0.519130      2.077084
  H      -0.623997     -0.957686      2.267796
  H       0.169466      0.319931      2.545665
  O      -0.756942     -0.445421     -2.911574
  H      -0.206113      0.133804     -3.451594
  H      -0.450726     -1.342694     -3.121749
19
Coordinates from ORCA-job pb_aquo6 E -651.033888493747
  Pb      0.247714      0.006946     -0.391893
  O       2.685409      0.709044      0.544685
  H       3.335097      0.149460      0.107920
  H       2.630920      0.368434      1.454692
  O      -2.199733     -0.025657      0.162901
  H      -2.321741      0.628300      0.862002
  H      -2.738957      0.288904     -0.570854
  O       0.065058      2.526813      0.260109
  H       0.867064      2.895944     -0.121766
  H      -0.652520      2.916925     -0.261230
  O       0.095851     -2.602876     -0.269430
  H       0.722914     -2.883879      0.407715
  H      -0.768116     -2.772258      0.121658
  O       0.193354     -0.551434      2.067659
  H      -0.653740     -0.985427      2.231791
  H       0.146096      0.289473      2.544303
  O      -0.786892     -0.469364     -2.907670
  H      -0.265970      0.084658     -3.464830
  H      -0.483989     -1.360347     -3.118171
19
Coordinates from ORCA-job pb_aquo6 E -651.034407828690
  Pb      0.236575      0.001636     -0.383945
  O       2.691023      0.703372      0.535677
  H       3.333202      0.141197      0.093159
  H       2.656927      0.370659      1.437582
  O      -2.223064     -0.029479      0.143762
  H      -2.352006      0.623430      0.842827
  H      -2.751171      0.293616     -0.597754
  O       0.055469      2.520245      0.268309
  H       0.857734      2.897325     -0.105578
  H      -0.659369      2.914198     -0.252622
  O       0.084138     -2.601267     -0.267772
  H       0.710166     -2.879899      0.411388
  H      -0.780956     -2.774447      0.122677
  O       0.216138     -0.541631      2.085480
  H      -0.623799     -0.986435      2.256163
  H       0.163332      0.299625      2.560912
  O      -0.777621     -0.474247     -2.903574
  H      -0.237173      0.096793     -3.467397
  H      -0.481726     -1.361030     -3.119703
19
Coordinates from ORCA-job pb_aquo6 E -651.034355319229
  Pb      0.254302     -0.007665     -0.401816
  O       2.664885      0.689634      0.545775
  H       3.326702      0.137679      0.110292
  H       2.622962      0.355958      1.452098
  O      -2.200943     -0.037911      0.162308
  H      -2.329173      0.608234      0.869572
  H      -2.741931      0.281947     -0.569978
  O       0.055335      2.507713      0.249335
  H       0.863038      2.876432     -0.131669
  H      -0.658833      2.895443     -0.263277
  O       0.094220     -2.623424     -0.283634
  H       0.721842     -2.919475      0.387114
  H      -0.776725     -2.794236      0.099723
  O       0.203698     -0.492051      2.081450
  H      -0.633096     -0.936765      2.265667
  H       0.154776      0.339440      2.555707
  O      -0.780424     -0.451049     -2.898226
  H      -0.249562      0.139467     -3.455139
  H      -0.473253     -1.355711     -3.115714
19
Coordinates from ORCA-job pb_aquo6 E -651.034594891459
  Pb      0.251443     -0.001040     -0.398894
  O       2.671389      0.697472      0.547199
  H       3.328681      0.142116      0.111269
  H       2.626546      0.362606      1.455601
  O      -2.198773     -0.028872      0.160164
  H      -2.326106      0.618221      0.865881
  H      -2.736452      0.292068     -0.574214
  O       0.058569      2.512637      0.255062
  H       0.863570      2.882159     -0.123527
  H      -0.658407      2.900518     -0.262782
  O       0.095793     -2.611565     -0.278658
  H       0.723396     -2.900635      0.394948
  H      -0.771642     -2.785102      0.105934
  O       0.201206     -0.517545      2.070987
  H      -0.638426     -0.960270      2.248065
  H       0.151920      0.319181      2.547749
  O      -0.785201     -0.462498     -2.897729
  H      -0.256756      0.113008     -3.456995
  H      -0.482930     -1.358801     -3.110469
19
Coordinates from ORCA-job pb_aquo6 E -651.034695125327
  Pb      0.252669     -0.003610     -0.398743
  O       2.687860      0.701896      0.553124
  H       3.339423      0.144425      0.116527
  H       2.642430      0.366035      1.455944
  O      -2.205837     -0.025774      0.140304
  H      -2.333833      0.618386      0.847854
  H      -2.732281      0.307533     -0.597319
  O       0.060778      2.507237      0.266702
  H       0.862936      2.889368     -0.103690
  H      -0.655997      2.900945     -0.249804
  O       0.099341     -2.604956     -0.280701
  H       0.726812     -2.883519      0.397281
  H      -0.766060     -2.781392      0.107378
  O       0.203483     -0.521529      2.073979
  H      -0.636495     -0.967109      2.242781
  H       0.149817      0.316031      2.552459
  O      -0.798984     -0.477432     -2.892095
  H      -0.276044      0.095588     -3.463876
  H      -0.502199     -1.368466     -3.108515
19
Coordinates from ORCA-job pb_aquo6 E -651.034847435976
  Pb      0.263021     -0.006954     -0.406611
  O       2.690575      0.702801      0.563215
  H       3.346432      0.146920      0.130670
  H       2.635801      0.362729      1.463292
  O      -2.196211     -0.017610      0.118801
  H      -2.324440      0.618266      0.833925
  H      -2.715246      0.328642     -0.618082
  O       0.060685      2.497651      0.276094
  H       0.861442      2.884278     -0.091043
  H      -0.656702      2.891318     -0.238467
  O       0.111902     -2.607183     -0.284248
  H       0.739842     -2.879880      0.395814
  H      -0.753266     -2.784553      0.103822
  O       0.201282     -0.513457      2.066312
  H      -0.640330     -0.957737      2.230481
  H       0.147782      0.319956      2.548316
  O      -0.822483     -0.484682     -2.878597
  H      -0.308955      0.090784     -3.460544
  H      -0.523311     -1.377630     -3.093562
19
Coordinates from ORCA-job pb_aquo6 E -651.035218046398
  Pb      0.285715     -0.017957     -0.427941
  O       2.689198      0.696876      0.592703
  H       3.354241      0.141243      0.170006
  H       2.623183      0.358714      1.491881
  O      -2.170046     -0.009117      0.094863
  H      -2.308575      0.609440      0.823975
  H      -2.669012      0.358574     -0.645286
  O       0.054386      2.472445      0.290882
  H       0.857498      2.870500     -0.068978
  H      -0.663672      2.860076     -0.223017
  O       0.132754     -2.614923     -0.309271
  H       0.760989     -2.882648      0.372892
  H      -0.735133     -2.801936      0.071085
  O       0.198058     -0.473376      2.047786
  H      -0.646471     -0.909965      2.218380
  H       0.152230      0.358562      2.530790
  O      -0.866161     -0.494043     -2.854609
  H      -0.365898      0.082194     -3.450765
  H      -0.565464     -1.391001     -3.065787
19
Coordinates from ORCA-job pb_aquo6 E -651.035416931171
  Pb      0.301187     -0.021779     -0.443685
  O       2.687026      0.696535      0.615463
  H       3.357338      0.140440      0.199701
  H       2.612057      0.359546      1.517680
  O      -2.147656     -0.002915      0.089880
  H      -2.291919      0.606271      0.825824
  H      -2.635550      0.374368     -0.652730
  O       0.055309      2.459738      0.298463
  H       0.858081      2.864961     -0.055439
  H      -0.664846      2.843254     -0.215721
  O       0.145984     -2.616827     -0.326174
  H       0.774287     -2.881088      0.357409
  H      -0.722154     -2.810957      0.049322
  O       0.190746     -0.454855      2.028978
  H      -0.656555     -0.884760      2.203185
  H       0.150971      0.379249      2.511826
  O      -0.894940     -0.503109     -2.844173
  H      -0.406530      0.065914     -3.448247
  H      -0.595018     -1.400328     -3.051969
19
Coordinates from ORCA-job pb_aquo6 E -651.035644091971
  Pb      0.319324     -0.027843     -0.464081
  O       2.695102      0.701296      0.645465
  H       3.369316      0.144877      0.237673
  H       2.613251      0.366961      1.547430
  O      -2.124998      0.010408      0.055703
  H      -2.280532      0.603468      0.801741
  H      -2.588854      0.408780     -0.692868
  O       0.054976      2.438341      0.321668
  H       0.851646      2.861426     -0.014402
  H      -0.666959      2.822672     -0.191241
  O       0.158714     -2.616676     -0.340904
  H       0.785605     -2.870660      0.347823
  H      -0.707601     -2.821647      0.028885
  O       0.192606     -0.435773      2.006214
  H      -0.655531     -0.862742      2.184017
  H       0.159026      0.399125      2.490999
  O      -0.942612     -0.526191     -2.824493
  H      -0.467652      0.038044     -3.449481
  H      -0.647009     -1.420209     -3.030558
19
Coordinates from ORCA-job pb_aquo6 E -651.035760861542
  Pb      0.351127     -0.033573     -0.484430
  O       2.721046      0.704213      0.667627
  H       3.397239      0.146764      0.267250
  H       2.620439      0.363036      1.568212
  O      -2.095071      0.014838      0.014953
  H      -2.258473      0.593023      0.770289
  H      -2.541097      0.432734     -0.731176
  O       0.065299      2.419270      0.346459
  H       0.854826      2.866258      0.026761
  H      -0.658143      2.806283     -0.159449
  O       0.186103     -2.619885     -0.351881
  H       0.814125     -2.861586      0.340193
  H      -0.677801     -2.835028      0.017877
  O       0.163626     -0.408158      1.987225
  H      -0.688246     -0.832556      2.151905
  H       0.125774      0.420768      2.473432
  O      -0.998653     -0.541564     -2.794303
  H      -0.562971      0.015420     -3.445090
  H      -0.701329     -1.436598     -3.006264
19
Coordinates from ORCA-job pb_aquo6 E -651.035620910285
  Pb      0.357727     -0.027531     -0.495821
  O       2.727590      0.713533      0.689233
  H       3.393544      0.144832      0.290362
  H       2.642671      0.390863      1.592916
  O      -2.088018      0.016172      0.000754
  H      -2.273536      0.593127      0.751688
  H      -2.498074      0.442053     -0.761930
  O       0.057136      2.408172      0.368500
  H       0.848788      2.888628      0.076859
  H      -0.668200      2.803781     -0.135174
  O       0.170742     -2.615129     -0.360325
  H       0.793714     -2.856904      0.335548
  H      -0.699166     -2.835613      0.001987
  O       0.186096     -0.414710      1.977055
  H      -0.661762     -0.835867      2.168962
  H       0.160225      0.444218      2.439847
  O      -1.014223     -0.564750     -2.799808
  H      -0.582389     -0.029273     -3.466351
  H      -0.735048     -1.451943     -3.014708
19
Coordinates from ORCA-job pb_aquo6 E -651.035970204816
  Pb      0.364259     -0.029272     -0.498410
  O       2.721702      0.714528      0.682611
  H       3.395942      0.152942      0.284792
  H       2.624227      0.379775      1.581085
  O      -2.084775      0.028545     -0.025316
  H      -2.257769      0.599819      0.733452
  H      -2.498872      0.467621     -0.780708
  O       0.056890      2.399105      0.371883
  H       0.842470      2.873079      0.078270
  H      -0.668608      2.794981     -0.124976
  O       0.179832     -2.613879     -0.344158
  H       0.804567     -2.850360      0.352417
  H      -0.686585     -2.826255      0.022249
  O       0.188184     -0.420031      1.969416
  H      -0.660129     -0.846873      2.145627
  H       0.152405      0.425061      2.441748
  O      -1.022235     -0.565319     -2.781676
  H      -0.600277     -0.012897     -3.452785
  H      -0.733409     -1.456910     -2.995930
19
Coordinates from ORCA-job pb_aquo6 E -651.036066118142
  Pb      0.370876     -0.030077     -0.499203
  O       2.721790      0.710701      0.679908
  H       3.395353      0.148620      0.280088
  H       2.622336      0.375240      1.580965
  O      -2.078717      0.020289     -0.007384
  H      -2.240929      0.598392      0.748653
  H      -2.507622      0.449444     -0.757448
  O       0.062784      2.400639      0.367303
  H       0.850531      2.873778      0.075080
  H      -0.664389      2.794707     -0.130525
  O       0.185432     -2.610388     -0.339670
  H       0.810900     -2.850222      0.355104
  H      -0.682431     -2.820876      0.026806
  O       0.171799     -0.415589      1.964507
  H      -0.677915     -0.842271      2.133695
  H       0.127664      0.428875      2.430697
  O      -1.019146     -0.559575     -2.788552
  H      -0.602607     -0.003661     -3.455212
  H      -0.727890     -1.454368     -3.005221
19
Coordinates from ORCA-job pb_aquo6 E -651.036221915113
  Pb      0.391990     -0.025470     -0.513782
  O       2.727002      0.718119      0.684167
  H       3.399915      0.154115      0.286361
  H       2.623311      0.382549      1.584859
  O      -2.063251      0.027214     -0.030702
  H      -2.220379      0.605209      0.726256
  H      -2.486973      0.461748     -0.780237
  O       0.063949      2.385905      0.386067
  H       0.846097      2.875488      0.113069
  H      -0.664899      2.782668     -0.105596
  O       0.187281     -2.600941     -0.322895
  H       0.810090     -2.838376      0.375065
  H      -0.681204     -2.805543      0.043201
  O       0.172207     -0.425508      1.945009
  H      -0.677174     -0.854757      2.108861
  H       0.117101      0.424261      2.398246
  O      -1.039101     -0.572121     -2.780941
  H      -0.640917     -0.015386     -3.458136
  H      -0.747225     -1.465512     -2.999281
19
Coordinates from ORCA-job pb_aquo6 E -651.036426209740
  Pb      0.425292     -0.017340     -0.534563
  O       2.736515      0.724183      0.679558
  H       3.404936      0.153877      0.282668
  H       2.646239      0.403128      1.583721
  O      -2.039251      0.026710     -0.046665
  H      -2.190060      0.617401      0.701688
  H      -2.467492      0.450021     -0.799909
  O       0.055383      2.362212      0.418240
  H       0.831755      2.882717      0.185186
  H      -0.674005      2.762673     -0.068427
  O       0.172253     -2.574485     -0.284274
  H       0.785390     -2.824754      0.417868
  H      -0.702056     -2.767139      0.075390
  O       0.179378     -0.441458      1.916794
  H      -0.664367     -0.879219      2.087193
  H       0.099683      0.426131      2.330710
  O      -1.052365     -0.587668     -2.792131
  H      -0.669222     -0.023619     -3.478488
  H      -0.760186     -1.479711     -3.014967
19
Coordinates from ORCA-job pb_aquo6 E -651.036479857919
  Pb      0.434580     -0.014818     -0.549270
  O       2.720692      0.724437      0.680360
  H       3.396785      0.157165      0.290661
  H       2.631084      0.410981      1.588003
  O      -2.028712      0.031084     -0.043572
  H      -2.180947      0.625160      0.702325
  H      -2.457221      0.451337     -0.801070
  O       0.045411      2.346952      0.421143
  H       0.821374      2.872060      0.196717
  H      -0.682294      2.748507     -0.063551
  O       0.163251     -2.568964     -0.280997
  H       0.770205     -2.830879      0.422717
  H      -0.713776     -2.753033      0.074636
  O       0.195823     -0.443660      1.907640
  H      -0.647394     -0.876844      2.093621
  H       0.122513      0.430484      2.314407
  O      -1.049865     -0.587169     -2.796100
  H      -0.668266     -0.027335     -3.480712
  H      -0.755426     -1.481803     -3.017368
19
Coordinates from ORCA-job pb_aquo6 E -651.036527329219
  Pb      0.441169     -0.013906     -0.556635
  O       2.726688      0.725148      0.685107
  H       3.403392      0.155481      0.299962
  H       2.642210      0.421716      1.596421
  O      -2.018444      0.026074     -0.039320
  H      -2.176772      0.625564      0.701122
  H      -2.451965      0.434767     -0.800444
  O       0.042632      2.342503      0.424529
  H       0.819245      2.876679      0.210640
  H      -0.683977      2.746533     -0.065331
  O       0.157047     -2.565002     -0.288515
  H       0.759740     -2.835836      0.415459
  H      -0.723734     -2.749740      0.062520
  O       0.196466     -0.435699      1.908711
  H      -0.644196     -0.871323      2.098610
  H       0.120336      0.440701      2.308753
  O      -1.054560     -0.591619     -2.797394
  H      -0.672113     -0.035972     -3.485040
  H      -0.765343     -1.482409     -3.019563
19
Coordinates from ORCA-job pb_aquo6 E -651.036588305721
  Pb      0.450814     -0.018139     -0.565382
  O       2.737742      0.723402      0.686351
  H       3.416409      0.152986      0.305070
  H       2.656711      0.425815      1.599303
  O      -2.004839      0.020467     -0.046728
  H      -2.166717      0.624106      0.689546
  H      -2.440719      0.421286     -0.809885
  O       0.032920      2.332422      0.438365
  H       0.807723      2.873903      0.238577
  H      -0.691060      2.737361     -0.054584
  O       0.149671     -2.557519     -0.285884
  H       0.747311     -2.835605      0.419690
  H      -0.733839     -2.739121      0.060633
  O       0.198734     -0.421483      1.900107
  H      -0.640996     -0.858846      2.091507
  H       0.118318      0.453436      2.298034
  O      -1.063854     -0.595437     -2.796734
  H      -0.684017     -0.037431     -3.487943
  H      -0.772496     -1.487943     -3.020452
19
Coordinates from ORCA-job pb_aquo6 E -651.036674421906
  Pb      0.465646     -0.016682     -0.577730
  O       2.756947      0.732436      0.684225
  H       3.437921      0.159898      0.310399
  H       2.673484      0.439422      1.597867
  O      -1.986438      0.021080     -0.072089
  H      -2.147350      0.637139      0.653868
  H      -2.423323      0.408386     -0.840997
  O       0.014625      2.318529      0.468347
  H       0.784592      2.870409      0.291677
  H      -0.704023      2.728297     -0.027177
  O       0.127647     -2.536612     -0.268390
  H       0.715096     -2.822940      0.442577
  H      -0.760171     -2.697026      0.075086
  O       0.219083     -0.431787      1.881363
  H      -0.620435     -0.874118      2.062783
  H       0.126075      0.445262      2.274317
  O      -1.076996     -0.610946     -2.792203
  H      -0.703156     -0.054728     -3.490240
  H      -0.781407     -1.502361     -3.014091
19
Coordinates from ORCA-job pb_aquo6 E -651.036731499337
  Pb      0.460060     -0.016312     -0.576590
  O       2.766963      0.735323      0.676381
  H       3.447541      0.160609      0.305615
  H       2.678526      0.442209      1.589103
  O      -1.989289      0.009351     -0.070060
  H      -2.141920      0.644581      0.641080
  H      -2.437289      0.374212     -0.842239
  O       0.000637      2.319590      0.476969
  H       0.780752      2.867068      0.307863
  H      -0.713923      2.734754     -0.024638
  O       0.109134     -2.530154     -0.266710
  H       0.688948     -2.824347      0.447217
  H      -0.785538     -2.659521      0.078392
  O       0.239936     -0.433684      1.883437
  H      -0.601987     -0.879311      2.046156
  H       0.134733      0.442932      2.278547
  O      -1.065764     -0.611258     -2.792444
  H      -0.685091     -0.055353     -3.488006
  H      -0.768607     -1.507032     -3.010484
19
Coordinates from ORCA-job pb_aquo6 E -651.036842962088
  Pb      0.475754     -0.015630     -0.597331
  O       2.773687      0.745304      0.682018
  H       3.459715      0.171823      0.320736
  H       2.674202      0.457699      1.596957
  O      -1.974860      0.000241     -0.073168
  H      -2.123443      0.650240      0.624930
  H      -2.425357      0.346449     -0.852704
  O      -0.007457      2.295405      0.488841
  H       0.769318      2.852909      0.342848
  H      -0.717083      2.717980     -0.007926
  O       0.084594     -2.526643     -0.278014
  H       0.655360     -2.827652      0.440066
  H      -0.813355     -2.625396      0.064945
  O       0.261328     -0.415023      1.875282
  H      -0.579820     -0.867177      2.021294
  H       0.144669      0.459421      2.269478
  O      -1.066569     -0.620397     -2.779633
  H      -0.696840     -0.070173     -3.481530
  H      -0.776024     -1.515721     -2.997498
19
Coordinates from ORCA-job pb_aquo6 E -651.036903114087
  Pb      0.472245     -0.009771     -0.595797
  O       2.779079      0.749780      0.671962
  H       3.469710      0.180925      0.312863
  H       2.679646      0.465361      1.588656
  O      -1.980456     -0.006743     -0.069438
  H      -2.136590      0.651345      0.619361
  H      -2.441023      0.319737     -0.851999
  O      -0.004656      2.300401      0.490573
  H       0.774196      2.853848      0.351097
  H      -0.712506      2.731006     -0.005716
  O       0.070150     -2.523100     -0.274418
  H       0.636336     -2.834508      0.442869
  H      -0.829787     -2.607619      0.067870
  O       0.267702     -0.419367      1.882453
  H      -0.567076     -0.882582      2.026802
  H       0.144238      0.454329      2.278088
  O      -1.053437     -0.619791     -2.786450
  H      -0.682072     -0.073858     -3.488281
  H      -0.767879     -1.515737     -3.000905
19
Coordinates from ORCA-job pb_aquo6 E -651.036990042143
  Pb      0.472217     -0.002046     -0.592531
  O       2.792688      0.754098      0.649601
  H       3.487506      0.187777      0.293471
  H       2.698430      0.476503      1.569071
  O      -1.977977     -0.024801     -0.065763
  H      -2.151003      0.649864      0.602923
  H      -2.450877      0.264007     -0.856951
  O      -0.008220      2.298173      0.504677
  H       0.774000      2.850718      0.383667
  H      -0.710158      2.740221      0.009205
  O       0.042153     -2.512561     -0.266110
  H       0.597434     -2.840128      0.452436
  H      -0.860084     -2.572351      0.073432
  O       0.276420     -0.412854      1.888872
  H      -0.548684     -0.893665      2.030419
  H       0.133879      0.460501      2.279358
  O      -1.034079     -0.617694     -2.793985
  H      -0.659382     -0.076520     -3.497538
  H      -0.756444     -1.515583     -3.004664
19
Coordinates from ORCA-job pb_aquo6 E -651.037080412990
  Pb      0.468979      0.005718     -0.581166
  O       2.805744      0.754406      0.621311
  H       3.501975      0.188695      0.266555
  H       2.715774      0.480478      1.541768
  O      -1.976678     -0.046692     -0.061934
  H      -2.177727      0.641447      0.584961
  H      -2.449260      0.205783     -0.866695
  O      -0.010077      2.297078      0.523699
  H       0.777427      2.845141      0.417128
  H      -0.705075      2.750575      0.029480
  O       0.019329     -2.507796     -0.261935
  H       0.565183     -2.844908      0.459178
  H      -0.884148     -2.546449      0.076344
  O       0.279491     -0.395076      1.897711
  H      -0.535614     -0.892304      2.041474
  H       0.117012      0.478092      2.280406
  O      -1.014565     -0.611378     -2.798951
  H      -0.633888     -0.076939     -3.505078
  H      -0.746063     -1.512212     -3.004666
19
Coordinates from ORCA-job pb_aquo6 E -651.037131933067
  Pb      0.471758      0.010953     -0.573696
  O       2.816967      0.755410      0.600439
  H       3.512620      0.187278      0.248520
  H       2.725041      0.483381      1.520948
  O      -1.973272     -0.063398     -0.061242
  H      -2.196857      0.637501      0.564015
  H      -2.435796      0.160264     -0.879650
  O      -0.013464      2.291105      0.546383
  H       0.777285      2.835907      0.451364
  H      -0.701620      2.753124      0.053064
  O       0.001992     -2.502663     -0.259875
  H       0.540363     -2.842127      0.465877
  H      -0.902146     -2.522944      0.076992
  O       0.284284     -0.378340      1.901176
  H      -0.524758     -0.885232      2.047464
  H       0.105255      0.496182      2.272392
  O      -1.006061     -0.608726     -2.801531
  H      -0.621984     -0.081129     -3.510567
  H      -0.741787     -1.512888     -3.002484
19
Coordinates from ORCA-job pb_aquo6 E -651.037170411563
  Pb      0.472071      0.013182     -0.566823
  O       2.820812      0.756557      0.591064
  H       3.512767      0.184081      0.239470
  H       2.724073      0.483278      1.510774
  O      -1.976480     -0.067748     -0.062538
  H      -2.210299      0.640388      0.550499
  H      -2.425198      0.146124     -0.891239
  O      -0.013586      2.290019      0.560625
  H       0.779806      2.830045      0.464729
  H      -0.698716      2.753359      0.065100
  O      -0.000677     -2.503530     -0.261424
  H       0.537572     -2.835048      0.468018
  H      -0.905310     -2.520807      0.075184
  O       0.286179     -0.372011      1.904559
  H      -0.521130     -0.881006      2.053570
  H       0.102806      0.504165      2.270205
  O      -1.007290     -0.608831     -2.801933
  H      -0.616641     -0.084242     -3.512422
  H      -0.742939     -1.514317     -2.997827
19
Coordinates from ORCA-job pb_aquo6 E -651.037178016594
  Pb      0.476048      0.016157     -0.558178
  O       2.826240      0.758402      0.585740
  H       3.513159      0.178085      0.237241
  H       2.716786      0.482543      1.503473
  O      -1.977329     -0.069020     -0.065512
  H      -2.221944      0.650651      0.529653
  H      -2.408930      0.129259     -0.904967
  O      -0.012662      2.289648      0.577429
  H       0.787125      2.822428      0.474692
  H      -0.692860      2.752217      0.076071
  O       0.003777     -2.504580     -0.268272
  H       0.543966     -2.822496      0.465910
  H      -0.902243     -2.524039      0.067004
  O       0.284220     -0.365280      1.907849
  H      -0.522211     -0.875300      2.058773
  H       0.097403      0.511246      2.266593
  O      -1.018596     -0.608805     -2.798841
  H      -0.624562     -0.091411     -3.508578
  H      -0.749566     -1.516048     -2.986491
19
Coordinates from ORCA-job pb_aquo6 E -651.037216999219
  Pb      0.480419      0.016781     -0.562192
  O       2.826054      0.764306      0.586817
  H       3.511499      0.180722      0.241022
  H       2.714542      0.492082      1.505464
  O      -1.975704     -0.065443     -0.066285
  H      -2.217381      0.664082      0.517879
  H      -2.405147      0.122326     -0.910406
  O      -0.014467      2.284023      0.585947
  H       0.783689      2.816917      0.485831
  H      -0.693679      2.746300      0.081123
  O      -0.003761     -2.499456     -0.268499
  H       0.535680     -2.813415      0.468099
  H      -0.910511     -2.520344      0.063250
  O       0.293424     -0.369235      1.905703
  H      -0.512062     -0.880070      2.057934
  H       0.106553      0.508607      2.263857
  O      -1.023833     -0.614784     -2.800419
  H      -0.624991     -0.097383     -3.510952
  H      -0.752505     -1.522355     -2.984584
19
Coordinates from ORCA-job pb_aquo6 E -651.037258149923
  Pb      0.481733      0.018995     -0.564596
  O       2.823484      0.771580      0.590386
  H       3.508649      0.186052      0.247577
  H       2.710315      0.503925      1.510415
  O      -1.974958     -0.058713     -0.066014
  H      -2.212033      0.682564      0.505209
  H      -2.410251      0.112072     -0.911501
  O      -0.012215      2.282904      0.587656
  H       0.786213      2.815161      0.487453
  H      -0.691165      2.744802      0.079744
  O      -0.009818     -2.494392     -0.271389
  H       0.529875     -2.805029      0.466220
  H      -0.917356     -2.521061      0.057855
  O       0.301652     -0.378432      1.904826
  H      -0.501147     -0.893582      2.055434
  H       0.113902      0.498105      2.268464
  O      -1.027315     -0.620233     -2.799205
  H      -0.626303     -0.103776     -3.509427
  H      -0.755443     -1.527282     -2.979514
19
Coordinates from ORCA-job pb_aquo6 E -651.037280626228
  Pb      0.484506      0.023204     -0.565428
  O       2.821905      0.783031      0.591091
  H       3.507016      0.193533      0.255081
  H       2.705131      0.523334      1.513118
  O      -1.973265     -0.051555     -0.065594
  H      -2.212423      0.712286      0.474447
  H      -2.412373      0.080599     -0.916584
  O      -0.007912      2.280414      0.596324
  H       0.792338      2.810546      0.497896
  H      -0.684494      2.744824      0.085082
  O      -0.022551     -2.486649     -0.278105
  H       0.516183     -2.792660      0.462138
  H      -0.931282     -2.520597      0.046767
  O       0.315206     -0.385757      1.904601
  H      -0.480422     -0.911250      2.056438
  H       0.121313      0.487423      2.274629
  O      -1.031507     -0.626720     -2.796037
  H      -0.628910     -0.115159     -3.507122
  H      -0.760640     -1.535185     -2.969150
19
Coordinates from ORCA-job pb_aquo6 E -651.037318977123
  Pb      0.482432      0.025791     -0.561178
  O       2.820369      0.790435      0.589190
  H       3.505192      0.198226      0.257328
  H       2.702740      0.536117      1.512222
  O      -1.976372     -0.044901     -0.066864
  H      -2.221634      0.735695      0.446120
  H      -2.414179      0.056472     -0.922858
  O      -0.002316      2.282761      0.601775
  H       0.800474      2.809801      0.501549
  H      -0.677528      2.749346      0.090231
  O      -0.029039     -2.484665     -0.284346
  H       0.510547     -2.786588      0.456995
  H      -0.938283     -2.528162      0.038378
  O       0.323346     -0.390050      1.907468
  H      -0.464988     -0.925202      2.063417
  H       0.124057      0.478624      2.284712
  O      -1.032844     -0.629055     -2.791313
  H      -0.628937     -0.121357     -3.504415
  H      -0.765218     -1.539630     -2.958819
19
Coordinates from ORCA-job pb_aquo6 E -651.037355480312
  Pb      0.480975      0.028702     -0.556525
  O       2.820670      0.802840      0.587162
  H       3.506181      0.207317      0.262576
  H       2.701787      0.556561      1.512476
  O      -1.976409     -0.033637     -0.068747
  H      -2.232550      0.770857      0.400378
  H      -2.406997      0.022025     -0.932356
  O       0.004497      2.284383      0.610646
  H       0.808802      2.809747      0.511663
  H      -0.669096      2.756386      0.102859
  O      -0.040357     -2.481459     -0.292603
  H       0.498655     -2.781260      0.450071
  H      -0.949498     -2.533429      0.027777
  O       0.335231     -0.396880      1.907898
  H      -0.441538     -0.947316      2.069529
  H       0.123612      0.465206      2.292967
  O      -1.035301     -0.633924     -2.782021
  H      -0.635699     -0.134570     -3.500833
  H      -0.775144     -1.547892     -2.943326
19
Coordinates from ORCA-job pb_aquo6 E -651.037380860395
  Pb      0.477627      0.027495     -0.552580
  O       2.821845      0.808610      0.586567
  H       3.507011      0.211430      0.264160
  H       2.704345      0.565661      1.512286
  O      -1.978412     -0.024741     -0.070718
  H      -2.239647      0.790150      0.376861
  H      -2.398789      0.012902     -0.940237
  O       0.006250      2.285672      0.613433
  H       0.810649      2.810881      0.513775
  H      -0.667637      2.759963      0.109913
  O      -0.042831     -2.484388     -0.296807
  H       0.496539     -2.784541      0.445614
  H      -0.951966     -2.539615      0.023433
  O       0.339910     -0.399857      1.909124
  H      -0.431341     -0.957085      2.074246
  H       0.122442      0.457831      2.298085
  O      -1.036803     -0.635494     -2.774639
  H      -0.639134     -0.139278     -3.498811
  H      -0.782240     -1.551936     -2.934114
19
Coordinates from ORCA-job pb_aquo6 E -651.037435090632
  Pb      0.477154      0.025384     -0.549775
  O       2.829988      0.821861      0.588308
  H       3.515027      0.222376      0.269763
  H       2.710149      0.581684      1.515268
  O      -1.975041     -0.007276     -0.076707
  H      -2.241241      0.821776      0.340114
  H      -2.373722      0.007553     -0.956614
  O       0.007281      2.284946      0.618885
  H       0.809432      2.813513      0.521506
  H      -0.668117      2.763772      0.124982
  O      -0.045283     -2.488690     -0.301464
  H       0.493087     -2.792543      0.440312
  H      -0.954235     -2.539180      0.019957
  O       0.343414     -0.409735      1.906135
  H      -0.421761     -0.976486      2.068341
  H       0.112886      0.442232      2.298064
  O      -1.044050     -0.642048     -2.757699
  H      -0.658352     -0.154490     -3.493511
  H      -0.798796     -1.560990     -2.916275
19
Coordinates from ORCA-job pb_aquo6 E -651.037486840351
  Pb      0.480831      0.025602     -0.544088
  O       2.848945      0.849369      0.585356
  H       3.533626      0.244273      0.276653
  H       2.720914      0.616052      1.513514
  O      -1.969015      0.021600     -0.098315
  H      -2.250083      0.875662      0.252283
  H      -2.321562     -0.020026     -0.998728
  O       0.006108      2.278234      0.643702
  H       0.807337      2.808540      0.553176
  H      -0.668578      2.766418      0.160805
  O      -0.060210     -2.489113     -0.308715
  H       0.473019     -2.798111      0.434859
  H      -0.970522     -2.526046      0.010754
  O       0.358203     -0.424812      1.903905
  H      -0.393128     -1.010957      2.061913
  H       0.104726      0.417847      2.299499
  O      -1.061989     -0.655838     -2.726811
  H      -0.691223     -0.185386     -3.483228
  H      -0.829579     -1.579649     -2.876945
19
Coordinates from ORCA-job pb_aquo6 E -651.037540788431
  Pb      0.485971      0.030875     -0.539482
  O       2.857698      0.869727      0.582333
  H       3.541969      0.260587      0.281343
  H       2.723007      0.643927      1.512484
  O      -1.967182      0.040255     -0.107113
  H      -2.259914      0.911353      0.187134
  H      -2.292422     -0.055192     -1.014599
  O       0.012023      2.275897      0.659817
  H       0.815341      2.803013      0.571351
  H      -0.662083      2.768546      0.179789
  O      -0.071692     -2.482264     -0.312456
  H       0.457008     -2.795808      0.432322
  H      -0.983979     -2.513494      0.002347
  O       0.367253     -0.440086      1.904340
  H      -0.371927     -1.041877      2.059946
  H       0.098794      0.397330      2.303624
  O      -1.073834     -0.663237     -2.712701
  H      -0.709720     -0.206047     -3.478045
  H      -0.848491     -1.589844     -2.852843
19
Coordinates from ORCA-job pb_aquo6 E -651.037588676324
  Pb      0.494953      0.036739     -0.537326
  O       2.857867      0.884263      0.581416
  H       3.540759      0.272185      0.284195
  H       2.722787      0.666897      1.511786
  O      -1.968810      0.049864     -0.109146
  H      -2.265995      0.933670      0.140197
  H      -2.279551     -0.088281     -1.016968
  O       0.019269      2.270975      0.669963
  H       0.825133      2.793884      0.582973
  H      -0.655435      2.762609      0.186055
  O      -0.080323     -2.470088     -0.310588
  H       0.441897     -2.790357      0.435482
  H      -0.995912     -2.498548     -0.003699
  O       0.375497     -0.451406      1.909376
  H      -0.354049     -1.064567      2.062739
  H       0.100964      0.381893      2.311822
  O      -1.084591     -0.666980     -2.713115
  H      -0.716709     -0.211990     -3.481500
  H      -0.859932     -1.597101     -2.844072
19
Coordinates from ORCA-job pb_aquo6 E -651.037582078159
  Pb      0.509708      0.041524     -0.540161
  O       2.853516      0.892027      0.592584
  H       3.537823      0.281814      0.294627
  H       2.715715      0.673353      1.522692
  O      -1.963722      0.054019     -0.111642
  H      -2.255382      0.940873      0.135337
  H      -2.275683     -0.080122     -1.016118
  O       0.033921      2.271445      0.665734
  H       0.837881      2.799155      0.578036
  H      -0.646899      2.757757      0.180370
  O      -0.067249     -2.460319     -0.306982
  H       0.452354     -2.787994      0.437377
  H      -0.984548     -2.493352     -0.004243
  O       0.365035     -0.464893      1.905563
  H      -0.364460     -1.080977      2.046319
  H       0.090432      0.367478      2.316208
  O      -1.100307     -0.675078     -2.712168
  H      -0.746467     -0.221852     -3.480533
  H      -0.873848     -1.601197     -2.843410
19
Coordinates from ORCA-job pb_aquo6 E -651.037665714603
  Pb      0.510298      0.039834     -0.536338
  O       2.855926      0.897388      0.593091
  H       3.542355      0.287079      0.299181
  H       2.718310      0.681296      1.522954
  O      -1.959682      0.057909     -0.124572
  H      -2.261022      0.947496      0.098487
  H      -2.255318     -0.095889     -1.033506
  O       0.034956      2.268473      0.676678
  H       0.838274      2.798828      0.593833
  H      -0.644403      2.760528      0.197627
  O      -0.074143     -2.463294     -0.314699
  H       0.442738     -2.793396      0.430786
  H      -0.991397     -2.495348     -0.013151
  O       0.374165     -0.455366      1.905172
  H      -0.350157     -1.077271      2.048804
  H       0.093385      0.369704      2.320919
  O      -1.107800     -0.678077     -2.699110
  H      -0.760751     -0.228591     -3.476910
  H      -0.887913     -1.607643     -2.829656
19
Coordinates from ORCA-job pb_aquo6 E -651.037693979492
  Pb      0.515049      0.039313     -0.533821
  O       2.845329      0.895939      0.599020
  H       3.531970      0.287160      0.302447
  H       2.709550      0.676397      1.527821
  O      -1.955221      0.057749     -0.123792
  H      -2.257327      0.945120      0.106700
  H      -2.242207     -0.085482     -1.038179
  O       0.040573      2.267515      0.676399
  H       0.841275      2.801145      0.593634
  H      -0.641987      2.757906      0.201294
  O      -0.065623     -2.466564     -0.314787
  H       0.449617     -2.798659      0.431010
  H      -0.983205     -2.498933     -0.014297
  O       0.373600     -0.449930      1.902980
  H      -0.353805     -1.068334      2.047398
  H       0.094400      0.375638      2.317990
  O      -1.115064     -0.681352     -2.702940
  H      -0.772855     -0.229215     -3.483220
  H      -0.896249     -1.611753     -2.836067
19
Coordinates from ORCA-job pb_aquo6 E -651.037723488893
  Pb      0.534333      0.045595     -0.527158
  O       2.836807      0.912858      0.611487
  H       3.527597      0.306959      0.318333
  H       2.699127      0.693868      1.540417
  O      -1.941267      0.068840     -0.142639
  H      -2.253719      0.961569      0.049847
  H      -2.196460     -0.104834     -1.063343
  O       0.060177      2.264321      0.691944
  H       0.856290      2.805360      0.615108
  H      -0.627559      2.756032      0.227328
  O      -0.061235     -2.460744     -0.314923
  H       0.442751     -2.807238      0.432116
  H      -0.981360     -2.487761     -0.022978
  O       0.380403     -0.452155      1.895515
  H      -0.341454     -1.079779      2.029412
  H       0.090013      0.364225      2.321873
  O      -1.145608     -0.695839     -2.692540
  H      -0.827132     -0.249854     -3.485925
  H      -0.933885     -1.627764     -2.824283
19
Coordinates from ORCA-job pb_aquo6 E -651.037750124012
  Pb      0.544730      0.046432     -0.525855
  O       2.828350      0.912476      0.628469
  H       3.523243      0.313278      0.331222
  H       2.692823      0.687832      1.556432
  O      -1.936616      0.071716     -0.152422
  H      -2.245900      0.960130      0.063785
  H      -2.188371     -0.077138     -1.077248
  O       0.071117      2.266522      0.685228
  H       0.862787      2.813373      0.604374
  H      -0.622903      2.751623      0.223342
  O      -0.039127     -2.464515     -0.311265
  H       0.460861     -2.821252      0.433590
  H      -0.961314     -2.495666     -0.025181
  O       0.372481     -0.452346      1.893268
  H      -0.356005     -1.073778      2.019881
  H       0.091416      0.362307      2.329488
  O      -1.166686     -0.702841     -2.695043
  H      -0.862183     -0.252009     -3.490792
  H      -0.950885     -1.632487     -2.831681
19
Coordinates from ORCA-job pb_aquo6 E -651.037750633300
  Pb      0.543829      0.050372     -0.520074
  O       2.826971      0.920402      0.634829
  H       3.520554      0.319603      0.338175
  H       2.691927      0.697702      1.562817
  O      -1.939838      0.083070     -0.155692
  H      -2.249164      0.975372      0.043369
  H      -2.178177     -0.081337     -1.083649
  O       0.075693      2.270036      0.687994
  H       0.867271      2.816281      0.604083
  H      -0.619825      2.754795      0.225374
  O      -0.037617     -2.463523     -0.310683
  H       0.458142     -2.822301      0.435795
  H      -0.961338     -2.494253     -0.030040
  O       0.380538     -0.465108      1.895439
  H      -0.346151     -1.089244      2.019458
  H       0.097859      0.350706      2.336231
  O      -1.177413     -0.709856     -2.696906
  H      -0.872718     -0.261395     -3.496015
  H      -0.962724     -1.637661     -2.830914
19
Coordinates from ORCA-job pb_aquo6 E -651.037768120804
  Pb      0.546079      0.050452     -0.518296
  O       2.829630      0.923589      0.640404
  H       3.522255      0.320592      0.345385
  H       2.692479      0.702307      1.568802
  O      -1.938674      0.088785     -0.155965
  H      -2.246283      0.985493      0.025522
  H      -2.171895     -0.088814     -1.082730
  O       0.078167      2.269916      0.688313
  H       0.870838      2.815150      0.601046
  H      -0.617033      2.753297      0.224044
  O      -0.031628     -2.463311     -0.315344
  H       0.462655     -2.820680      0.432677
  H      -0.956276     -2.499179     -0.038756
  O       0.377720     -0.465814      1.897736
  H      -0.347998     -1.091100      2.020880
  H       0.095483      0.346020      2.339533
  O      -1.188261     -0.709928     -2.693860
  H      -0.888753     -0.262976     -3.493020
  H      -0.970686     -1.640140     -2.826782
19
Coordinates from ORCA-job pb_aquo6 E -651.037783113649
  Pb      0.548848      0.051850     -0.516276
  O       2.830401      0.923475      0.643908
  H       3.524730      0.322412      0.348950
  H       2.693592      0.702195      1.572767
  O      -1.935651      0.090405     -0.162885
  H      -2.243324      0.986872      0.019697
  H      -2.166918     -0.085403     -1.089920
  O       0.078220      2.269389      0.690620
  H       0.869986      2.815011      0.601569
  H      -0.616367      2.750849      0.225373
  O      -0.026630     -2.463279     -0.313731
  H       0.464487     -2.821278      0.436295
  H      -0.952529     -2.501076     -0.041808
  O       0.377013     -0.465956      1.895489
  H      -0.350311     -1.089767      2.016923
  H       0.096764      0.344770      2.339877
  O      -1.197214     -0.712001     -2.691386
  H      -0.901549     -0.264010     -3.491224
  H      -0.975730     -1.640800     -2.824647
19
Coordinates from ORCA-job pb_aquo6 E -651.037797385532
  Pb      0.553272      0.056071     -0.508056
  O       2.830066      0.924970      0.654466
  H       3.525916      0.325781      0.359253
  H       2.695063      0.704967      1.584301
  O      -1.932222      0.094833     -0.170183
  H      -2.241388      0.992842      0.001701
  H      -2.152557     -0.088862     -1.098870
  O       0.083007      2.271623      0.694341
  H       0.874616      2.816868      0.601085
  H      -0.610667      2.750579      0.225620
  O      -0.014252     -2.464555     -0.316558
  H       0.467520     -2.823470      0.439135
  H      -0.943662     -2.506840     -0.057908
  O       0.376958     -0.465744      1.897560
  H      -0.352295     -1.087942      2.016155
  H       0.099270      0.343442      2.345696
  O      -1.218834     -0.717648     -2.690981
  H      -0.931066     -0.268635     -3.492497
  H      -0.990925     -1.644621     -2.824668
19
Coordinates from ORCA-job pb_aquo6 E -651.037822818202
  Pb      0.563575      0.065963     -0.491039
  O       2.831272      0.927534      0.674204
  H       3.529095      0.331162      0.377870
  H       2.703330      0.711929      1.606266
  O      -1.923772      0.101085     -0.184026
  H      -2.233877      1.003426     -0.039064
  H      -2.119155     -0.101901     -1.115978
  O       0.088123      2.275256      0.705025
  H       0.880167      2.818951      0.606796
  H      -0.602101      2.748903      0.225785
  O       0.007662     -2.463370     -0.321190
  H       0.463967     -2.823120      0.449748
  H      -0.929668     -2.509837     -0.094638
  O       0.380508     -0.466317      1.903809
  H      -0.352451     -1.085594      2.015501
  H       0.104891      0.342082      2.354608
  O      -1.263556     -0.731278     -2.691890
  H      -0.990410     -0.277644     -3.495764
  H      -1.019781     -1.653573     -2.826434
19
Coordinates from ORCA-job pb_aquo6 E -651.037843284145
  Pb      0.570107      0.075093     -0.476715
  O       2.833995      0.919671      0.683334
  H       3.533873      0.327569      0.383432
  H       2.719439      0.710982      1.618652
  O      -1.918386      0.089834     -0.183929
  H      -2.232049      0.992661     -0.050324
  H      -2.106205     -0.124553     -1.115692
  O       0.086759      2.281329      0.712581
  H       0.881475      2.821026      0.615070
  H      -0.596322      2.751160      0.218640
  O       0.020980     -2.459777     -0.322987
  H       0.450509     -2.819249      0.463275
  H      -0.923842     -2.505662     -0.128215
  O       0.382304     -0.458476      1.914036
  H      -0.354792     -1.073275      2.023501
  H       0.108256      0.354714      2.359104
  O      -1.289175     -0.738333     -2.705511
  H      -1.020191     -0.275540     -3.505916
  H      -1.028914     -1.655515     -2.842745
19
Coordinates from ORCA-job pb_aquo6 E -651.037875763349
  Pb      0.592769      0.086632     -0.457628
  O       2.835579      0.919085      0.710257
  H       3.538663      0.332567      0.406658
  H       2.735781      0.718020      1.649097
  O      -1.903554      0.089060     -0.200494
  H      -2.217281      0.995923     -0.098681
  H      -2.055890     -0.144689     -1.136795
  O       0.094968      2.287786      0.726087
  H       0.888977      2.830093      0.633150
  H      -0.584273      2.751398      0.219346
  O       0.050309     -2.452266     -0.329613
  H       0.439407     -2.815628      0.475443
  H      -0.902860     -2.501094     -0.183410
  O       0.382553     -0.454244      1.924066
  H      -0.357779     -1.066893      2.024000
  H       0.106474      0.359448      2.366294
  O      -1.348758     -0.761026     -2.707284
  H      -1.107651     -0.289084     -3.510681
  H      -1.069616     -1.671429     -2.850221
19
Coordinates from ORCA-job pb_aquo6 E -651.037904026352
  Pb      0.629478      0.104156     -0.430704
  O       2.841189      0.911169      0.748716
  H       3.551097      0.336148      0.438787
  H       2.768586      0.724604      1.693536
  O      -1.878602      0.075390     -0.221991
  H      -2.190857      0.986086     -0.156976
  H      -1.991136     -0.182095     -1.161617
  O       0.101538      2.299429      0.744688
  H       0.895010      2.845312      0.665247
  H      -0.567611      2.752937      0.213995
  O       0.090949     -2.435510     -0.334688
  H       0.411033     -2.804946      0.497181
  H      -0.871182     -2.485816     -0.269777
  O       0.381917     -0.443527      1.940634
  H      -0.364538     -1.050972      2.025990
  H       0.103848      0.372873      2.375181
  O      -1.435415     -0.794446     -2.717279
  H      -1.233794     -0.304370     -3.519497
  H      -1.123691     -1.692761     -2.871834
19
Coordinates from ORCA-job pb_aquo6 E -651.037963398192
  Pb      0.658899      0.113463     -0.419642
  O       2.849557      0.894655      0.773953
  H       3.567246      0.332442      0.458514
  H       2.804180      0.722892      1.722856
  O      -1.861067      0.052293     -0.228508
  H      -2.165896      0.965643     -0.163813
  H      -1.971668     -0.201865     -1.169830
  O       0.093948      2.310622      0.750825
  H       0.886147      2.861195      0.692933
  H      -0.563568      2.756149      0.197271
  O       0.112576     -2.416226     -0.332127
  H       0.375235     -2.784974      0.519526
  H      -0.852323     -2.465970     -0.334140
  O       0.384236     -0.436451      1.954207
  H      -0.368209     -1.037058      2.031771
  H       0.107575      0.387369      2.377430
  O      -1.485273     -0.822097     -2.736366
  H      -1.307409     -0.310794     -3.532169
  H      -1.146367     -1.707628     -2.903101
19
Coordinates from ORCA-job pb_aquo6 E -651.038079283945
  Pb      0.690532      0.128061     -0.396076
  O       2.859579      0.883700      0.810756
  H       3.587154      0.335057      0.493730
  H       2.835216      0.728930      1.764518
  O      -1.837930      0.038939     -0.246223
  H      -2.143907      0.953335     -0.206739
  H      -1.931635     -0.240706     -1.184719
  O       0.094845      2.324031      0.762119
  H       0.889334      2.871262      0.712654
  H      -0.545835      2.755797      0.179250
  O       0.148903     -2.401306     -0.336869
  H       0.345342     -2.772522      0.531537
  H      -0.812457     -2.461621     -0.420464
  O       0.379617     -0.424792      1.969388
  H      -0.380191     -1.016711      2.039834
  H       0.112106      0.400050      2.394918
  O      -1.567177     -0.847600     -2.748543
  H      -1.412984     -0.320932     -3.536891
  H      -1.192692     -1.719313     -2.922590
19
Coordinates from ORCA-job pb_aquo6 E -651.038238293724
  Pb      0.706494      0.141517     -0.373355
  O       2.880715      0.876957      0.847647
  H       3.622623      0.340673      0.542596
  H       2.844890      0.736588      1.803498
  O      -1.817794      0.048961     -0.259678
  H      -2.140848      0.957620     -0.243681
  H      -1.926771     -0.284747     -1.180086
  O       0.097555      2.343441      0.767083
  H       0.901577      2.866765      0.697816
  H      -0.519699      2.751585      0.151707
  O       0.189249     -2.399509     -0.350861
  H       0.350779     -2.759561      0.530885
  H      -0.758639     -2.505097     -0.497308
  O       0.360670     -0.412840      1.974130
  H      -0.408182     -0.991958      2.049626
  H       0.124698      0.399748      2.440691
  O      -1.657509     -0.854273     -2.766886
  H      -1.489846     -0.328142     -3.548878
  H      -1.242141     -1.714067     -2.925354
19
Coordinates from ORCA-job pb_aquo6 E -651.038378836210
  Pb      0.742582      0.155080     -0.347859
  O       2.880857      0.868689      0.887822
  H       3.633741      0.348387      0.582022
  H       2.863090      0.737740      1.847301
  O      -1.788529      0.030661     -0.287256
  H      -2.110200      0.940013     -0.281047
  H      -1.868545     -0.301336     -1.217107
  O       0.099797      2.353410      0.776471
  H       0.905250      2.879622      0.721873
  H      -0.501446      2.751136      0.136690
  O       0.225883     -2.385395     -0.350674
  H       0.313944     -2.755746      0.536978
  H      -0.709166     -2.485950     -0.576514
  O       0.362931     -0.404157      1.988413
  H      -0.417045     -0.969653      2.051401
  H       0.135671      0.413028      2.452863
  O      -1.744737     -0.886594     -2.771291
  H      -1.605985     -0.346036     -3.547498
  H      -1.300274     -1.729241     -2.942996
19
Coordinates from ORCA-job pb_aquo6 E -651.037908774999
  Pb      0.739366      0.151187     -0.359655
  O       2.850133      0.879606      0.883896
  H       3.609874      0.365123      0.588436
  H       2.806735      0.714447      1.835745
  O      -1.788642      0.035097     -0.283153
  H      -2.097833      0.946533     -0.208315
  H      -1.881959     -0.178985     -1.245566
  O       0.094959      2.342399      0.749686
  H       0.896479      2.892397      0.711442
  H      -0.528409      2.766017      0.133113
  O       0.213850     -2.391646     -0.332713
  H       0.318307     -2.778063      0.543644
  H      -0.738139     -2.447422     -0.520263
  O       0.402345     -0.442534      1.974949
  H      -0.388537     -0.996503      2.022854
  H       0.174280      0.381838      2.437251
  O      -1.703690     -0.905265     -2.766375
  H      -1.564430     -0.372348     -3.562066
  H      -1.296871     -1.748221     -2.943317
19
Coordinates from ORCA-job pb_aquo6 E -651.038831590329
  Pb      0.745077      0.153448     -0.356618
  O       2.883601      0.877805      0.900712
  H       3.642832      0.360517      0.608315
  H       2.825905      0.716690      1.851542
  O      -1.776260      0.034718     -0.276889
  H      -2.085921      0.946648     -0.220671
  H      -1.899205     -0.231955     -1.218434
  O       0.095307      2.352754      0.753962
  H       0.898645      2.888458      0.707309
  H      -0.513529      2.763080      0.122269
  O       0.231050     -2.392006     -0.348382
  H       0.324087     -2.750145      0.542337
  H      -0.710179     -2.476012     -0.553690
  O       0.377000     -0.424768      1.980635
  H      -0.416595     -0.975021      2.023709
  H       0.155055      0.385498      2.456999
  O      -1.747748     -0.903056     -2.786075
  H      -1.602597     -0.368489     -3.571179
  H      -1.308706     -1.744505     -2.956261
19
Coordinates from ORCA-job pb_aquo6 E -651.039118784240
  Pb      0.759702      0.166831     -0.342204
  O       2.905784      0.892325      0.930289
  H       3.671583      0.376283      0.651847
  H       2.834259      0.737594      1.880038
  O      -1.755493      0.051704     -0.304052
  H      -2.076631      0.961209     -0.286422
  H      -1.873903     -0.270044     -1.232326
  O       0.099420      2.365567      0.762013
  H       0.906269      2.894248      0.717149
  H      -0.497363      2.770458      0.118519
  O       0.240090     -2.382807     -0.356087
  H       0.301489     -2.732772      0.540893
  H      -0.686823     -2.486433     -0.600792
  O       0.380166     -0.437890      1.987106
  H      -0.411624     -0.989671      2.033487
  H       0.166389      0.364488      2.485677
  O      -1.816120     -0.921121     -2.792341
  H      -1.666976     -0.392620     -3.583324
  H      -1.362400     -1.753690     -2.949879
19
Coordinates from ORCA-job pb_aquo6 E -651.039490521325
  Pb      0.792529      0.179239     -0.323464
  O       2.935362      0.908227      0.991714
  H       3.709464      0.394521      0.732683
  H       2.826167      0.739396      1.936533
  O      -1.706242      0.058183     -0.338230
  H      -2.027167      0.967608     -0.333305
  H      -1.837378     -0.281310     -1.264000
  O       0.105513      2.378535      0.761721
  H       0.913242      2.905842      0.722915
  H      -0.476938      2.774401      0.101171
  O       0.281735     -2.378379     -0.375634
  H       0.289230     -2.712548      0.529527
  H      -0.624890     -2.498792     -0.676950
  O       0.375485     -0.437909      1.993609
  H      -0.429919     -0.971098      2.024169
  H       0.178626      0.347446      2.517471
  O      -1.939321     -0.956803     -2.798577
  H      -1.799657     -0.429172     -3.589898
  H      -1.448022     -1.773728     -2.951863
19
Coordinates from ORCA-job pb_aquo6 E -651.039831401611
  Pb      0.831915      0.192792     -0.313136
  O       2.960184      0.937240      1.052979
  H       3.741825      0.421767      0.820649
  H       2.801528      0.743973      1.987168
  O      -1.650169      0.067571     -0.376023
  H      -1.974333      0.975839     -0.375377
  H      -1.815593     -0.283414     -1.292820
  O       0.118319      2.383324      0.755066
  H       0.919952      2.922584      0.737503
  H      -0.459226      2.782016      0.091349
  O       0.305212     -2.369814     -0.391810
  H       0.265006     -2.697530      0.514874
  H      -0.585066     -2.494144     -0.738848
  O       0.384204     -0.447710      1.990075
  H      -0.432020     -0.965281      2.002283
  H       0.201893      0.320114      2.542724
  O      -2.045802     -0.997481     -2.800881
  H      -1.916905     -0.478537     -3.597029
  H      -1.533105     -1.799651     -2.949157
19
Coordinates from ORCA-job pb_aquo6 E -651.040046440273
  Pb      0.846451      0.199177     -0.313124
  O       2.975340      0.961565      1.083569
  H       3.750779      0.428357      0.868261
  H       2.771651      0.731543      1.997347
  O      -1.620822      0.079321     -0.396951
  H      -1.961626      0.981843     -0.380881
  H      -1.816439     -0.264062     -1.301874
  O       0.128495      2.381241      0.744099
  H       0.920558      2.936264      0.741827
  H      -0.461320      2.795013      0.101455
  O       0.310438     -2.370961     -0.403545
  H       0.265741     -2.703663      0.501161
  H      -0.583946     -2.480749     -0.750389
  O       0.395211     -0.454973      1.981513
  H      -0.427322     -0.963082      1.993496
  H       0.225934      0.307245      2.545793
  O      -2.082336     -1.019034     -2.801132
  H      -1.952275     -0.508816     -3.611225
  H      -1.566694     -1.822570     -2.939809
19
Coordinates from ORCA-job pb_aquo6 E -651.040240174359
  Pb      0.874232      0.204624     -0.303660
  O       2.976328      0.980578      1.122533
  H       3.748536      0.442338      0.910349
  H       2.765896      0.744885      2.035766
  O      -1.595054      0.089038     -0.426929
  H      -1.935026      0.991771     -0.431967
  H      -1.785247     -0.277597     -1.327447
  O       0.139623      2.380692      0.745127
  H       0.922340      2.950156      0.766769
  H      -0.453188      2.797634      0.104837
  O       0.310867     -2.357124     -0.412591
  H       0.222402     -2.703703      0.483265
  H      -0.569234     -2.451449     -0.800068
  O       0.416053     -0.467787      1.981810
  H      -0.411228     -0.968035      1.993372
  H       0.259133      0.301722      2.548150
  O      -2.134284     -1.052500     -2.793891
  H      -2.022178     -0.543772     -3.602426
  H      -1.612152     -1.847813     -2.933409
19
Coordinates from ORCA-job pb_aquo6 E -651.040405067524
  Pb      0.894986      0.201815     -0.311259
  O       2.963261      0.985957      1.131656
  H       3.722888      0.433781      0.908315
  H       2.756636      0.749955      2.046908
  O      -1.586384      0.099082     -0.424779
  H      -1.927053      1.001597     -0.436382
  H      -1.778506     -0.282325     -1.316548
  O       0.151529      2.368333      0.743124
  H       0.921431      2.951971      0.777487
  H      -0.454781      2.783956      0.115327
  O       0.310628     -2.350145     -0.422960
  H       0.217220     -2.710695      0.467234
  H      -0.569948     -2.434159     -0.814053
  O       0.418414     -0.464575      1.976244
  H      -0.413197     -0.957172      1.996837
  H       0.267311      0.312641      2.526391
  O      -2.134881     -1.065159     -2.786424
  H      -2.028227     -0.551234     -3.591142
  H      -1.613506     -1.859964     -2.926388
19
Coordinates from ORCA-job pb_aquo6 E -651.040463361900
  Pb      0.904814      0.201402     -0.298813
  O       2.948673      0.985425      1.145197
  H       3.691763      0.422176      0.899354
  H       2.764948      0.762804      2.065443
  O      -1.588890      0.110546     -0.424636
  H      -1.917115      1.016387     -0.469899
  H      -1.781920     -0.299142     -1.301645
  O       0.152949      2.372805      0.747611
  H       0.923315      2.955486      0.776620
  H      -0.449129      2.775190      0.106299
  O       0.323708     -2.341006     -0.426227
  H       0.193895     -2.702867      0.458825
  H      -0.542934     -2.416290     -0.853099
  O       0.419935     -0.486227      1.979435
  H      -0.424525     -0.954492      2.006751
  H       0.294749      0.310765      2.511555
  O      -2.157330     -1.082394     -2.776125
  H      -2.035718     -0.549296     -3.572518
  H      -1.603370     -1.867615     -2.914538
19
Coordinates from ORCA-job pb_aquo6 E -651.040628853027
  Pb      0.910127      0.201386     -0.312512
  O       2.935702      1.003189      1.150698
  H       3.666771      0.422991      0.904505
  H       2.727161      0.762213      2.060455
  O      -1.577785      0.135394     -0.426330
  H      -1.921208      1.035647     -0.468142
  H      -1.786672     -0.281397     -1.295559
  O       0.174210      2.364041      0.746773
  H       0.934955      2.957006      0.771461
  H      -0.449838      2.774116      0.135972
  O       0.318078     -2.349633     -0.442766
  H       0.223319     -2.727429      0.440739
  H      -0.562896     -2.416918     -0.831720
  O       0.421206     -0.488377      1.959455
  H      -0.428167     -0.947493      1.983782
  H       0.303976      0.303683      2.503395
  O      -2.146333     -1.089046     -2.763178
  H      -2.018311     -0.569219     -3.564553
  H      -1.606475     -1.876495     -2.892884
19
Coordinates from ORCA-job pb_aquo6 E -651.040687691848
  Pb      0.920235      0.201953     -0.307638
  O       2.959900      1.014328      1.166284
  H       3.694389      0.438372      0.921542
  H       2.746463      0.766432      2.074814
  O      -1.556649      0.131983     -0.446685
  H      -1.905871      1.028813     -0.501510
  H      -1.776916     -0.295198     -1.312666
  O       0.181246      2.370623      0.752310
  H       0.939646      2.967060      0.783098
  H      -0.442039      2.785275      0.141639
  O       0.327733     -2.351002     -0.453517
  H       0.221045     -2.730954      0.426830
  H      -0.545473     -2.420700     -0.854056
  O       0.403323     -0.484886      1.965423
  H      -0.450629     -0.937565      1.966716
  H       0.278917      0.292171      2.522055
  O      -2.181243     -1.100264     -2.749830
  H      -2.061001     -0.581482     -3.552985
  H      -1.635259     -1.881299     -2.882235
19
Coordinates from ORCA-job pb_aquo6 E -651.040746884194
  Pb      0.917036      0.199001     -0.306875
  O       2.952393      1.013149      1.171171
  H       3.683389      0.437135      0.917806
  H       2.747742      0.767818      2.082430
  O      -1.558333      0.138027     -0.440056
  H      -1.903198      1.037240     -0.494178
  H      -1.790169     -0.288264     -1.302794
  O       0.181990      2.371992      0.748076
  H       0.942666      2.966373      0.767717
  H      -0.441555      2.780644      0.133365
  O       0.335970     -2.352796     -0.455149
  H       0.226761     -2.729670      0.426283
  H      -0.536894     -2.423963     -0.860866
  O       0.399371     -0.495605      1.962105
  H      -0.462021     -0.934404      1.958287
  H       0.285424      0.286637      2.518101
  O      -2.182333     -1.103573     -2.745192
  H      -2.053853     -0.578021     -3.542104
  H      -1.626569     -1.878059     -2.878537
19
Coordinates from ORCA-job pb_aquo6 E -651.040766001092
  Pb      0.910997      0.196317     -0.304769
  O       2.937869      1.011428      1.175917
  H       3.661731      0.431843      0.909411
  H       2.739975      0.760628      2.084751
  O      -1.559589      0.148617     -0.444564
  H      -1.910317      1.046312     -0.494639
  H      -1.785829     -0.281761     -1.309153
  O       0.191303      2.376357      0.749240
  H       0.953362      2.966233      0.748190
  H      -0.441217      2.781284      0.144475
  O       0.352609     -2.358384     -0.458002
  H       0.253717     -2.735118      0.425313
  H      -0.524663     -2.427909     -0.852254
  O       0.389508     -0.503774      1.954057
  H      -0.480366     -0.924939      1.943189
  H       0.288410      0.280582      2.510647
  O      -2.187055     -1.104955     -2.732859
  H      -2.052925     -0.571943     -3.524208
  H      -1.619700     -1.877158     -2.865154
19
Coordinates from ORCA-job pb_aquo6 E -651.040795723289
  Pb      0.911513      0.194811     -0.306711
  O       2.938241      1.011844      1.174747
  H       3.663497      0.435281      0.906157
  H       2.747573      0.763336      2.086646
  O      -1.560577      0.146418     -0.442118
  H      -1.910510      1.043626     -0.499456
  H      -1.791559     -0.288280     -1.302123
  O       0.191961      2.374908      0.749361
  H       0.954248      2.965824      0.748173
  H      -0.440879      2.782292      0.144157
  O       0.349711     -2.357075     -0.458261
  H       0.247308     -2.727659      0.426955
  H      -0.527913     -2.425177     -0.853974
  O       0.388765     -0.507701      1.955470
  H      -0.482168     -0.927179      1.940265
  H       0.285029      0.278972      2.508126
  O      -2.182448     -1.106765     -2.731368
  H      -2.047292     -0.568314     -3.520177
  H      -1.616679     -1.875501     -2.866276
19
Coordinates from ORCA-job pb_aquo6 E -651.040831743962
  Pb      0.914948      0.192351     -0.310540
  O       2.939668      1.009333      1.179439
  H       3.673264      0.440983      0.915708
  H       2.750606      0.760170      2.093776
  O      -1.553194      0.140768     -0.444492
  H      -1.909673      1.035352     -0.498437
  H      -1.793683     -0.294350     -1.302529
  O       0.187015      2.370995      0.746887
  H       0.951430      2.960837      0.745233
  H      -0.444638      2.780791      0.141620
  O       0.348709     -2.357729     -0.461969
  H       0.240286     -2.721141      0.425335
  H      -0.527967     -2.426105     -0.861716
  O       0.391834     -0.501868      1.959540
  H      -0.481957     -0.915279      1.947643
  H       0.295139      0.283677      2.513950
  O      -2.191416     -1.108352     -2.737145
  H      -2.051901     -0.564461     -3.519977
  H      -1.620653     -1.872315     -2.872735
19
Coordinates from ORCA-job pb_aquo6 E -651.040875196578
  Pb      0.913719      0.189191     -0.316080
  O       2.935827      1.004742      1.177989
  H       3.676838      0.446873      0.912384
  H       2.755823      0.754310      2.093375
  O      -1.553853      0.136447     -0.446341
  H      -1.918548      1.027925     -0.495663
  H      -1.794012     -0.298698     -1.303705
  O       0.185772      2.366657      0.746143
  H       0.952425      2.953354      0.736133
  H      -0.450467      2.779974      0.148061
  O       0.348449     -2.360917     -0.459022
  H       0.244265     -2.712726      0.433460
  H      -0.532470     -2.425144     -0.850037
  O       0.389845     -0.502702      1.958487
  H      -0.487248     -0.908881      1.945476
  H       0.298395      0.285861      2.509013
  O      -2.188356     -1.105869     -2.739376
  H      -2.044136     -0.550879     -3.513754
  H      -1.614449     -1.865858     -2.876954
19
Coordinates from ORCA-job pb_aquo6 E -651.040897511289
  Pb      0.915302      0.186383     -0.323355
  O       2.924289      1.003863      1.180927
  H       3.672590      0.455915      0.914321
  H       2.747295      0.748548      2.095619
  O      -1.551685      0.138560     -0.450209
  H      -1.923663      1.026834     -0.503723
  H      -1.793343     -0.305908     -1.302976
  O       0.189504      2.358816      0.745675
  H       0.958111      2.942846      0.724759
  H      -0.457786      2.778084      0.163640
  O       0.345995     -2.364123     -0.459898
  H       0.249465     -2.703007      0.438510
  H      -0.540475     -2.419533     -0.837723
  O       0.393240     -0.506358      1.951992
  H      -0.489800     -0.899190      1.940023
  H       0.314739      0.283902      2.500937
  O      -2.190275     -1.107970     -2.739874
  H      -2.036987     -0.540183     -3.502938
  H      -1.608696     -1.863819     -2.876116
19
Coordinates from ORCA-job pb_aquo6 E -651.040911252223
  Pb      0.917991      0.185736     -0.324880
  O       2.922422      1.001995      1.182949
  H       3.677972      0.464332      0.915903
  H       2.748503      0.745197      2.096863
  O      -1.549401      0.135873     -0.453840
  H      -1.927259      1.022186     -0.501336
  H      -1.789909     -0.305836     -1.308210
  O       0.190753      2.354916      0.745080
  H       0.959421      2.938516      0.720582
  H      -0.460734      2.774785      0.169191
  O       0.347849     -2.369243     -0.457679
  H       0.253335     -2.705472      0.441937
  H      -0.539532     -2.422358     -0.833886
  O       0.388836     -0.504574      1.948756
  H      -0.497455     -0.889882      1.939070
  H       0.319443      0.287465      2.498120
  O      -2.196314     -1.107400     -2.741452
  H      -2.038292     -0.533032     -3.499035
  H      -1.609811     -1.859544     -2.878542
19
Coordinates from ORCA-job pb_aquo6 E -651.039792654677
  Pb      0.933837      0.176126     -0.329726
  O       2.911917      1.000462      1.195035
  H       3.670909      0.470264      0.928209
  H       2.758665      0.752715      2.117673
  O      -1.538710      0.107013     -0.448715
  H      -1.885984      1.011208     -0.487896
  H      -1.810837     -0.316546     -1.296439
  O       0.176298      2.340632      0.725841
  H       0.942606      2.941162      0.727282
  H      -0.459508      2.756436      0.134371
  O       0.337958     -2.359892     -0.448409
  H       0.189686     -2.693226      0.422535
  H      -0.510763     -2.394117     -0.861075
  O       0.402470     -0.510071      1.953896
  H      -0.490934     -0.883179      1.952513
  H       0.344043      0.299949      2.477769
  O      -2.205180     -1.115233     -2.735527
  H      -2.046859     -0.517784     -3.476937
  H      -1.601795     -1.852259     -2.890809
19
Coordinates from ORCA-job pb_aquo6 E -651.040743199980
  Pb      0.943731      0.187145     -0.339117
  O       2.912268      1.007921      1.217586
  H       3.677084      0.480195      0.955726
  H       2.748667      0.756865      2.132919
  O      -1.522160      0.113577     -0.448591
  H      -1.868544      1.013090     -0.485966
  H      -1.794934     -0.321600     -1.296788
  O       0.193883      2.349304      0.729721
  H       0.955477      2.953672      0.738545
  H      -0.447947      2.770472      0.148058
  O       0.349327     -2.363700     -0.466339
  H       0.199581     -2.704608      0.434601
  H      -0.517063     -2.396962     -0.879462
  O       0.398385     -0.504727      1.934288
  H      -0.496237     -0.877327      1.916900
  H       0.334459      0.291956      2.475291
  O      -2.228299     -1.130221     -2.733555
  H      -2.090949     -0.542380     -3.485975
  H      -1.628909     -1.869013     -2.888250
19
Coordinates from ORCA-job pb_aquo6 E -651.036752911809
  Pb      0.911923      0.179359     -0.318342
  O       2.917079      0.992400      1.205955
  H       3.677588      0.458439      0.943825
  H       2.738229      0.742928      2.107937
  O      -1.548257      0.152569     -0.447782
  H      -1.926485      1.000347     -0.502901
  H      -1.761660     -0.291617     -1.302722
  O       0.180077      2.370324      0.741907
  H       0.945828      2.924793      0.707309
  H      -0.465440      2.792685      0.148557
  O       0.342438     -2.355227     -0.457892
  H       0.245897     -2.692103      0.418826
  H      -0.556992     -2.421113     -0.869865
  O       0.404904     -0.508462      1.946451
  H      -0.455486     -0.874245      1.952676
  H       0.343103      0.279047      2.502088
  O      -2.213212     -1.119208     -2.745381
  H      -2.037746     -0.548018     -3.491690
  H      -1.623969     -1.869240     -2.879366
19
Coordinates from ORCA-job pb_aquo6 E -651.037737992497
  Pb      0.922246      0.181860     -0.318389
  O       2.927499      1.003004      1.206724
  H       3.698348      0.473845      0.953626
  H       2.737278      0.745227      2.119483
  O      -1.545830      0.141618     -0.457472
  H      -1.950746      1.063255     -0.522201
  H      -1.776836     -0.313791     -1.323965
  O       0.195511      2.367512      0.747524
  H       0.955170      2.928337      0.716813
  H      -0.455949      2.799912      0.165451
  O       0.355257     -2.366586     -0.466209
  H       0.257042     -2.696988      0.418145
  H      -0.547712     -2.432924     -0.868615
  O       0.407076     -0.507543      1.944532
  H      -0.486587     -0.890047      1.947379
  H       0.343725      0.278194      2.504101
  O      -2.222163     -1.127801     -2.740486
  H      -2.054350     -0.553532     -3.497731
  H      -1.641158     -1.879891     -2.869118
19
Coordinates from ORCA-job pb_aquo6 E -651.021419970155
  Pb      0.897598      0.186874     -0.330562
  O       2.914728      1.000444      1.169290
  H       3.665814      0.484543      0.904448
  H       2.732240      0.735733      2.112181
  O      -1.560004      0.126522     -0.472297
  H      -1.917303      0.987841     -0.511209
  H      -1.775100     -0.293153     -1.298877
  O       0.172770      2.354206      0.738528
  H       0.992483      2.960111      0.715228
  H      -0.454422      2.757570      0.167297
  O       0.331830     -2.364490     -0.488223
  H       0.214823     -2.720357      0.468678
  H      -0.485848     -2.418687     -0.851322
  O       0.406410     -0.504245      1.940374
  H      -0.550844     -0.904844      1.942043
  H       0.353847      0.293094      2.497956
  O      -2.196910     -1.095908     -2.711399
  H      -2.028660     -0.522805     -3.479763
  H      -1.595635     -1.848789     -2.852780
19
Coordinates from ORCA-job pb_aquo6 E -651.040410690517
  Pb      0.921892      0.188674     -0.326235
  O       2.915724      1.000625      1.205496
  H       3.682194      0.472464      0.947807
  H       2.731461      0.742616      2.118214
  O      -1.552922      0.133940     -0.460314
  H      -1.927405      1.026242     -0.511863
  H      -1.793478     -0.312053     -1.316945
  O       0.190049      2.357458      0.738899
  H       0.975677      2.948079      0.723018
  H      -0.447500      2.774474      0.153179
  O       0.359696     -2.363188     -0.469518
  H       0.241661     -2.706241      0.438697
  H      -0.515875     -2.419515     -0.864830
  O       0.400248     -0.507391      1.943832
  H      -0.486681     -0.884666      1.942482
  H       0.339546      0.284357      2.495893
  O      -2.223645     -1.115022     -2.731617
  H      -2.064598     -0.543609     -3.495139
  H      -1.628226     -1.863586     -2.871465
19
Coordinates from ORCA-job pb_aquo6 E -651.037785321541
  Pb      0.930905      0.189271     -0.324411
  O       2.924321      1.003914      1.203245
  H       3.687901      0.474926      0.948698
  H       2.740906      0.749806      2.108128
  O      -1.550710      0.129938     -0.456815
  H      -1.911244      1.007095     -0.494831
  H      -1.777188     -0.306520     -1.316730
  O       0.196828      2.362159      0.738194
  H       0.948267      2.927588      0.727342
  H      -0.454141      2.779718      0.139418
  O       0.355091     -2.367647     -0.461057
  H       0.239838     -2.690901      0.420866
  H      -0.535047     -2.420830     -0.865661
  O       0.407010     -0.503099      1.952987
  H      -0.524057     -0.887051      1.934841
  H       0.352063      0.285740      2.507109
  O      -2.219382     -1.112313     -2.741903
  H      -2.056542     -0.541194     -3.487692
  H      -1.637002     -1.866940     -2.872137
19
Coordinates from ORCA-job pb_aquo6 E -651.040821305252
  Pb      0.926140      0.186594     -0.330529
  O       2.914525      1.007324      1.207462
  H       3.681650      0.480811      0.953301
  H       2.725807      0.745668      2.120752
  O      -1.543747      0.131982     -0.454105
  H      -1.906502      1.026067     -0.503550
  H      -1.786839     -0.304277     -1.308245
  O       0.200343      2.360044      0.734299
  H       0.964339      2.939616      0.721935
  H      -0.446550      2.781665      0.146506
  O       0.358913     -2.370466     -0.472074
  H       0.238419     -2.701184      0.426435
  H      -0.518349     -2.424174     -0.864605
  O       0.393939     -0.509334      1.938847
  H      -0.489018     -0.886769      1.932797
  H       0.332737      0.278553      2.495315
  O      -2.225022     -1.117840     -2.730253
  H      -2.066816     -0.542784     -3.488009
  H      -1.636151     -1.867838     -2.866689
19
Coordinates from ORCA-job pb_aquo6 E -651.040361831742
  Pb      0.943515      0.192874     -0.342866
  O       2.907231      1.006103      1.220618
  H       3.676070      0.481554      0.969091
  H       2.722109      0.747844      2.119487
  O      -1.519520      0.123365     -0.450105
  H      -1.885530      1.013264     -0.497159
  H      -1.785583     -0.332602     -1.293812
  O       0.212763      2.355740      0.727936
  H       0.986098      2.963610      0.730656
  H      -0.435485      2.778312      0.168672
  O       0.367114     -2.365891     -0.472423
  H       0.254245     -2.703484      0.423714
  H      -0.511410     -2.425371     -0.875173
  O       0.378841     -0.497509      1.924220
  H      -0.518702     -0.871821      1.905148
  H       0.314267      0.286266      2.483418
  O      -2.237834     -1.123175     -2.724835
  H      -2.101971     -0.544181     -3.482162
  H      -1.648399     -1.871238     -2.874833
19
Coordinates from ORCA-job pb_aquo6 E -651.040885755106
  Pb      0.938009      0.190725     -0.339404
  O       2.901630      1.007886      1.215416
  H       3.674657      0.483889      0.960412
  H       2.710150      0.747489      2.128836
  O      -1.533213      0.132690     -0.449592
  H      -1.892452      1.024420     -0.496246
  H      -1.793910     -0.315132     -1.297785
  O       0.221277      2.357541      0.726450
  H       0.982696      2.953791      0.721762
  H      -0.428572      2.785763      0.155881
  O       0.375541     -2.368763     -0.472796
  H       0.261922     -2.708453      0.421931
  H      -0.503963     -2.430263     -0.868337
  O       0.376995     -0.507261      1.922820
  H      -0.513570     -0.885503      1.908131
  H       0.312088      0.278763      2.484271
  O      -2.229734     -1.119188     -2.715557
  H      -2.098662     -0.544441     -3.480570
  H      -1.643070     -1.870293     -2.866032
19
Coordinates from ORCA-job pb_aquo6 E -651.040405617656
  Pb      0.923337      0.182575     -0.337143
  O       2.912478      1.007963      1.208641
  H       3.672493      0.489878      0.957988
  H       2.730752      0.741337      2.110935
  O      -1.532071      0.125970     -0.452342
  H      -1.892600      1.026609     -0.504639
  H      -1.775255     -0.302554     -1.302634
  O       0.201324      2.360203      0.733448
  H       0.964706      2.939049      0.723884
  H      -0.453539      2.784878      0.152125
  O       0.359149     -2.378212     -0.471071
  H       0.243746     -2.700691      0.434071
  H      -0.517200     -2.431626     -0.863274
  O       0.386365     -0.507389      1.927513
  H      -0.500852     -0.878650      1.913599
  H       0.325949      0.272314      2.486154
  O      -2.229487     -1.116034     -2.724978
  H      -2.059760     -0.538728     -3.467851
  H      -1.641715     -1.863233     -2.864838
19
Coordinates from ORCA-job pb_aquo6 E -651.040974066828
  Pb      0.929325      0.187898     -0.336250
  O       2.911641      1.007398      1.212606
  H       3.684772      0.483325      0.961579
  H       2.724251      0.745092      2.121745
  O      -1.534879      0.126815     -0.449508
  H      -1.895497      1.020895     -0.497497
  H      -1.789925     -0.311666     -1.301424
  O       0.203783      2.361226      0.729776
  H       0.972205      2.945412      0.721456
  H      -0.442679      2.782717      0.148776
  O       0.367115     -2.370216     -0.469285
  H       0.246724     -2.700962      0.429935
  H      -0.509692     -2.421850     -0.868180
  O       0.385071     -0.509829      1.929146
  H      -0.508060     -0.881184      1.911525
  H       0.325862      0.275214      2.488821
  O      -2.233519     -1.119211     -2.725268
  H      -2.075460     -0.540144     -3.480832
  H      -1.643218     -1.867269     -2.867531
19
Coordinates from ORCA-job pb_aquo6 E -651.040952781102
  Pb      0.936518      0.189345     -0.342835
  O       2.896349      1.007815      1.216029
  H       3.667465      0.492529      0.964687
  H       2.704297      0.744681      2.125446
  O      -1.531611      0.134724     -0.449799
  H      -1.887770      1.027923     -0.504018
  H      -1.790328     -0.316863     -1.295685
  O       0.225120      2.358428      0.723443
  H       0.987412      2.953090      0.719535
  H      -0.426046      2.791183      0.159133
  O       0.379026     -2.373837     -0.472422
  H       0.267842     -2.711137      0.422752
  H      -0.500813     -2.437237     -0.868048
  O       0.374057     -0.508416      1.918213
  H      -0.513229     -0.887956      1.904601
  H       0.306845      0.274903      2.481154
  O      -2.230704     -1.116501     -2.709206
  H      -2.100089     -0.540795     -3.470722
  H      -1.646521     -1.868219     -2.862668
19
Coordinates from ORCA-job pb_aquo6 E -651.040989610398
  Pb      0.935643      0.189450     -0.343782
  O       2.897931      1.008853      1.219888
  H       3.675959      0.493510      0.970611
  H       2.708833      0.747123      2.128433
  O      -1.531386      0.130501     -0.447906
  H      -1.886797      1.025832     -0.499498
  H      -1.789432     -0.313257     -1.295790
  O       0.221602      2.361056      0.723089
  H       0.986400      2.950832      0.717567
  H      -0.429913      2.790204      0.153712
  O       0.376514     -2.372781     -0.474890
  H       0.259709     -2.708291      0.422072
  H      -0.501119     -2.429629     -0.871889
  O       0.375686     -0.510378      1.918608
  H      -0.514688     -0.884864      1.899928
  H       0.314464      0.270171      2.485094
  O      -2.235930     -1.120555     -2.712748
  H      -2.096182     -0.543307     -3.470560
  H      -1.649475     -1.870812     -2.862351
19
Coordinates from ORCA-job pb_aquo6 E -651.040947807535
  Pb      0.924319      0.188096     -0.331543
  O       2.901188      0.998310      1.204547
  H       3.672076      0.477248      0.952611
  H       2.715357      0.739046      2.116061
  O      -1.540485      0.126556     -0.444382
  H      -1.904732      1.020116     -0.497191
  H      -1.793171     -0.315126     -1.295550
  O       0.203739      2.364334      0.729302
  H       0.976287      2.943461      0.719126
  H      -0.436313      2.788731      0.143382
  O       0.379164     -2.370002     -0.464927
  H       0.253394     -2.702681      0.433148
  H      -0.494709     -2.422050     -0.873133
  O       0.382585     -0.511929      1.932463
  H      -0.513685     -0.878696      1.923016
  H       0.330661      0.279394      2.484314
  O      -2.231692     -1.114201     -2.723602
  H      -2.065780     -0.535803     -3.478393
  H      -1.640384     -1.861144     -2.869656
19
Coordinates from ORCA-job pb_aquo6 E -651.040975113172
  Pb      0.932933      0.187475     -0.343673
  O       2.898065      1.011606      1.221997
  H       3.675087      0.497325      0.975727
  H       2.708055      0.747942      2.130547
  O      -1.530812      0.134233     -0.445016
  H      -1.881424      1.030639     -0.503084
  H      -1.792274     -0.314230     -1.291801
  O       0.218134      2.362817      0.721544
  H       0.984764      2.948925      0.716183
  H      -0.431106      2.789645      0.147906
  O       0.376399     -2.372990     -0.473060
  H       0.255664     -2.708052      0.423748
  H      -0.499912     -2.428197     -0.872555
  O       0.380558     -0.515871      1.916601
  H      -0.511883     -0.887234      1.895607
  H       0.320276      0.263852      2.483193
  O      -2.240436     -1.121427     -2.712922
  H      -2.090678     -0.541824     -3.470449
  H      -1.653591     -1.870974     -2.860904
19
Coordinates from ORCA-job pb_aquo6 E -651.040949257461
  Pb      0.940356      0.191022     -0.346605
  O       2.896487      1.006300      1.221908
  H       3.679780      0.495025      0.975456
  H       2.704535      0.744076      2.129700
  O      -1.531885      0.125955     -0.452385
  H      -1.889534      1.020333     -0.500848
  H      -1.786986     -0.312926     -1.301144
  O       0.225407      2.358593      0.722066
  H       0.990847      2.949119      0.721531
  H      -0.425612      2.791656      0.156172
  O       0.383211     -2.373350     -0.476386
  H       0.262501     -2.708209      0.419453
  H      -0.493152     -2.426967     -0.879266
  O       0.369810     -0.506729      1.915558
  H      -0.520359     -0.878691      1.899891
  H       0.310547      0.275600      2.481502
  O      -2.239514     -1.121206     -2.706526
  H      -2.105694     -0.544401     -3.462360
  H      -1.652926     -1.871541     -2.858129
19
Coordinates from ORCA-job pb_aquo6 E -651.041010140419
  Pb      0.933937      0.188895     -0.342828
  O       2.896133      1.006400      1.219025
  H       3.675443      0.493460      0.972682
  H       2.705978      0.744591      2.127892
  O      -1.532635      0.129724     -0.445530
  H      -1.887567      1.025094     -0.500616
  H      -1.791165     -0.315504     -1.293269
  O       0.220401      2.362832      0.721786
  H       0.987967      2.948712      0.718274
  H      -0.427322      2.792253      0.148509
  O       0.383047     -2.372623     -0.473748
  H       0.261142     -2.707272      0.423081
  H      -0.492213     -2.428623     -0.876734
  O       0.374263     -0.511450      1.918432
  H      -0.518085     -0.882545      1.901065
  H       0.316164      0.270217      2.483577
  O      -2.240295     -1.119515     -2.711669
  H      -2.093474     -0.541335     -3.468683
  H      -1.653901     -1.869651     -2.861655
19
Coordinates from ORCA-job pb_aquo6 E -651.041007605233
  Pb      0.933633      0.188472     -0.344228
  O       2.894044      1.006853      1.219646
  H       3.674813      0.495372      0.975241
  H       2.703249      0.745410      2.128607
  O      -1.533080      0.129407     -0.444128
  H      -1.884583      1.026079     -0.501174
  H      -1.791663     -0.316111     -1.291504
  O       0.219131      2.362485      0.720798
  H       0.987280      2.947587      0.719827
  H      -0.426369      2.793674      0.146439
  O       0.381295     -2.372277     -0.473563
  H       0.255400     -2.707946      0.422130
  H      -0.493042     -2.424082     -0.879357
  O       0.377749     -0.513244      1.917330
  H      -0.515021     -0.883441      1.899689
  H       0.319661      0.269319      2.480834
  O      -2.239367     -1.120779     -2.709799
  H      -2.091607     -0.542188     -3.466517
  H      -1.653704     -1.870931     -2.860682
19
Coordinates from ORCA-job pb_aquo6 E -651.041010000841
  Pb      0.934067      0.187874     -0.345932
  O       2.893954      1.005923      1.222643
  H       3.677808      0.498442      0.981685
  H       2.702045      0.743095      2.131270
  O      -1.532108      0.129437     -0.444412
  H      -1.882734      1.026430     -0.501210
  H      -1.791046     -0.314356     -1.292940
  O       0.219455      2.362858      0.718899
  H       0.989223      2.945593      0.721436
  H      -0.424507      2.794253      0.143097
  O       0.388781     -2.374204     -0.474747
  H       0.259033     -2.708199      0.421085
  H      -0.483970     -2.425919     -0.884305
  O       0.373544     -0.512825      1.913928
  H      -0.520856     -0.879281      1.895915
  H       0.318401      0.269611      2.478503
  O      -2.246544     -1.121561     -2.706341
  H      -2.095235     -0.541420     -3.461840
  H      -1.661492     -1.872091     -2.857144
19
Coordinates from ORCA-job pb_aquo6 E -651.041019695487
  Pb      0.932380      0.188469     -0.348409
  O       2.891550      1.003841      1.218988
  H       3.678291      0.497793      0.983319
  H       2.695697      0.742049      2.126740
  O      -1.534955      0.129630     -0.439749
  H      -1.883297      1.026864     -0.500588
  H      -1.796358     -0.317980     -1.286043
  O       0.221429      2.363925      0.716985
  H       0.992920      2.944251      0.726698
  H      -0.418558      2.799470      0.139257
  O       0.394505     -2.373601     -0.475226
  H       0.263925     -2.706644      0.421247
  H      -0.477372     -2.426488     -0.886023
  O       0.369078     -0.512866      1.911048
  H      -0.524648     -0.880827      1.893767
  H       0.313365      0.269281      2.475680
  O      -2.244855     -1.119009     -2.703424
  H      -2.090604     -0.540896     -3.459449
  H      -1.664673     -1.873600     -2.855227
19
Coordinates from ORCA-job pb_aquo6 E -651.041015778241
  Pb      0.935668      0.189465     -0.349454
  O       2.886942      1.003231      1.222073
  H       3.677404      0.500642      0.990278
  H       2.688370      0.743138      2.129590
  O      -1.531636      0.128338     -0.438783
  H      -1.876079      1.027209     -0.502504
  H      -1.790385     -0.318838     -1.285715
  O       0.224484      2.363715      0.715041
  H       0.995679      2.944232      0.731428
  H      -0.411413      2.803316      0.136547
  O       0.400423     -2.372801     -0.478061
  H       0.263204     -2.705298      0.417423
  H      -0.468616     -2.425526     -0.894784
  O       0.367569     -0.512304      1.910943
  H      -0.526707     -0.878520      1.891686
  H       0.312990      0.268899      2.477260
  O      -2.253197     -1.122401     -2.700647
  H      -2.101358     -0.544797     -3.457271
  H      -1.675521     -1.878043     -2.855460
19
Coordinates from ORCA-job pb_aquo6 E -651.041011087491
  Pb      0.934140      0.188684     -0.350253
  O       2.889030      1.003119      1.218004
  H       3.678823      0.499660      0.985884
  H       2.690617      0.743458      2.125734
  O      -1.534294      0.128824     -0.439196
  H      -1.880821      1.026861     -0.503655
  H      -1.792592     -0.319696     -1.285124
  O       0.222300      2.362008      0.717216
  H       0.994033      2.941843      0.735953
  H      -0.412902      2.802542      0.138801
  O       0.397232     -2.373764     -0.477207
  H       0.262486     -2.705612      0.418905
  H      -0.473496     -2.425655     -0.890929
  O       0.368414     -0.510989      1.910925
  H      -0.525745     -0.877780      1.892087
  H       0.312491      0.271666      2.475284
  O      -2.247573     -1.120796     -2.701213
  H      -2.092344     -0.542420     -3.456632
  H      -1.671981     -1.878294     -2.854995
19
Coordinates from ORCA-job pb_aquo6 E -651.041028418429
  Pb      0.934387      0.188759     -0.349954
  O       2.893059      1.004258      1.215217
  H       3.680824      0.498031      0.982860
  H       2.694667      0.745665      2.123260
  O      -1.534775      0.130673     -0.441625
  H      -1.882770      1.028192     -0.506949
  H      -1.795286     -0.319866     -1.286103
  O       0.218800      2.360006      0.720409
  H       0.990270      2.940105      0.747789
  H      -0.412303      2.802379      0.138550
  O       0.395028     -2.373835     -0.476525
  H       0.257119     -2.705021      0.419212
  H      -0.474863     -2.424933     -0.891832
  O       0.369702     -0.511062      1.911299
  H      -0.525265     -0.876031      1.892473
  H       0.313484      0.274242      2.472264
  O      -2.246384     -1.122398     -2.701792
  H      -2.085020     -0.543423     -3.455122
  H      -1.672857     -1.882081     -2.853840
19
Coordinates from ORCA-job pb_aquo6 E -651.041030520032
  Pb      0.932262      0.188749     -0.350240
  O       2.895795      1.005947      1.210040
  H       3.682497      0.497347      0.979288
  H       2.694780      0.748901      2.118134
  O      -1.536379      0.135374     -0.442726
  H      -1.884179      1.032447     -0.511981
  H      -1.795031     -0.318745     -1.285375
  O       0.215081      2.357610      0.724397
  H       0.987882      2.935359      0.762292
  H      -0.409153      2.804698      0.139063
  O       0.393719     -2.374759     -0.476815
  H       0.257256     -2.703506      0.420196
  H      -0.477090     -2.427961     -0.890553
  O       0.370533     -0.510991      1.911329
  H      -0.524865     -0.874781      1.888850
  H       0.311942      0.274721      2.471143
  O      -2.244986     -1.123300     -2.701897
  H      -2.073740     -0.544534     -3.453395
  H      -1.678506     -1.888916     -2.852159
19
Coordinates from ORCA-job pb_aquo6 E -651.041036007094
  Pb      0.933601      0.189459     -0.350736
  O       2.895375      1.006519      1.207732
  H       3.682325      0.498050      0.977499
  H       2.695561      0.752396      2.116711
  O      -1.535011      0.136798     -0.443658
  H      -1.882591      1.034051     -0.514462
  H      -1.795081     -0.319871     -1.284554
  O       0.212659      2.354757      0.726333
  H       0.985512      2.931135      0.776515
  H      -0.404151      2.806542      0.136813
  O       0.394109     -2.373861     -0.476714
  H       0.252942     -2.702198      0.419663
  H      -0.474807     -2.427619     -0.894025
  O       0.370855     -0.510424      1.912028
  H      -0.525508     -0.871443      1.887038
  H       0.313683      0.276434      2.470604
  O      -2.247458     -1.125872     -2.703042
  H      -2.067614     -0.545591     -3.451487
  H      -1.686583     -1.895601     -2.852667
19
Coordinates from ORCA-job pb_aquo6 E -651.041038958473
  Pb      0.934130      0.191196     -0.350747
  O       2.895183      1.008788      1.207854
  H       3.681788      0.499105      0.979020
  H       2.693990      0.755800      2.116882
  O      -1.533384      0.139854     -0.445837
  H      -1.879827      1.037218     -0.518684
  H      -1.793086     -0.318869     -1.286012
  O       0.210969      2.353577      0.727955
  H       0.984856      2.927466      0.788731
  H      -0.398097      2.810448      0.134230
  O       0.395152     -2.371999     -0.478046
  H       0.251069     -2.701900      0.417419
  H      -0.471548     -2.427314     -0.899492
  O       0.371357     -0.511337      1.911720
  H      -0.525696     -0.870280      1.884600
  H       0.315605      0.274760      2.471212
  O      -2.252613     -1.128821     -2.702100
  H      -2.063937     -0.550541     -3.449817
  H      -1.698093     -1.903493     -2.849296
19
Coordinates from ORCA-job pb_aquo6 E -651.041041696113
  Pb      0.934074      0.192635     -0.352089
  O       2.893236      1.009379      1.208025
  H       3.680642      0.500472      0.979786
  H       2.693582      0.757911      2.117798
  O      -1.532798      0.140226     -0.446632
  H      -1.878700      1.037966     -0.518319
  H      -1.794030     -0.318775     -1.286023
  O       0.208779      2.352783      0.728407
  H       0.984780      2.922691      0.797027
  H      -0.392848      2.814329      0.130735
  O       0.396276     -2.370074     -0.478103
  H       0.251536     -2.702050      0.416355
  H      -0.468848     -2.428346     -0.902177
  O       0.371460     -0.511398      1.910039
  H      -0.526573     -0.867758      1.882664
  H       0.318380      0.273889      2.470794
  O      -2.256242     -1.129393     -2.702727
  H      -2.056949     -0.551723     -3.448276
  H      -1.707939     -1.909105     -2.847695
19
Coordinates from ORCA-job pb_aquo6 E -651.041059721510
  Pb      0.933494      0.195006     -0.353172
  O       2.891463      1.012062      1.208705
  H       3.677796      0.502197      0.979132
  H       2.693119      0.760168      2.118736
  O      -1.533131      0.140055     -0.447269
  H      -1.879174      1.037704     -0.518147
  H      -1.794779     -0.318551     -1.286652
  O       0.207139      2.353002      0.728472
  H       0.986601      2.917320      0.803238
  H      -0.387543      2.819560      0.127743
  O       0.394680     -2.366334     -0.479075
  H       0.253225     -2.702889      0.414227
  H      -0.469816     -2.427240     -0.903611
  O       0.372075     -0.512615      1.908701
  H      -0.526240     -0.868287      1.881559
  H       0.321140      0.270940      2.471824
  O      -2.257667     -1.128761     -2.703356
  H      -2.046203     -0.554358     -3.448206
  H      -1.718359     -1.915320     -2.843256
19
Coordinates from ORCA-job pb_aquo6 E -651.041067353843
  Pb      0.931300      0.197387     -0.355203
  O       2.889858      1.014487      1.210665
  H       3.674531      0.502889      0.979234
  H       2.693158      0.761910      2.120934
  O      -1.534023      0.138275     -0.446940
  H      -1.880901      1.035833     -0.515182
  H      -1.796959     -0.319013     -1.286434
  O       0.204329      2.355070      0.727922
  H       0.988956      2.911810      0.807770
  H      -0.382099      2.827786      0.123659
  O       0.392853     -2.362228     -0.481353
  H       0.259434     -2.705561      0.410501
  H      -0.472819     -2.428762     -0.902688
  O       0.372610     -0.513162      1.905305
  H      -0.526140     -0.868052      1.880670
  H       0.324212      0.268213      2.471895
  O      -2.258278     -1.125184     -2.704397
  H      -2.031028     -0.556666     -3.449165
  H      -1.731175     -1.921373     -2.837603
19
Coordinates from ORCA-job pb_aquo6 E -651.041055435609
  Pb      0.930251      0.198286     -0.355786
  O       2.890351      1.016201      1.209693
  H       3.673272      0.502724      0.976828
  H       2.693103      0.762146      2.119460
  O      -1.536127      0.135968     -0.445104
  H      -1.882276      1.033924     -0.512824
  H      -1.798296     -0.319059     -1.286086
  O       0.202515      2.355541      0.727053
  H       0.989324      2.908706      0.810769
  H      -0.379856      2.831589      0.121587
  O       0.390939     -2.360267     -0.482266
  H       0.262404     -2.705164      0.409768
  H      -0.476705     -2.427222     -0.899773
  O       0.372962     -0.513949      1.905185
  H      -0.525401     -0.869984      1.880979
  H       0.323608      0.267392      2.471556
  O      -2.255227     -1.121903     -2.705620
  H      -2.020362     -0.557275     -3.451000
  H      -1.736660     -1.923994     -2.834830
19
Coordinates from ORCA-job pb_aquo6 E -651.041062681991
  Pb      0.928583      0.198704     -0.357197
  O       2.890399      1.018439      1.209832
  H       3.670926      0.502123      0.975370
  H       2.691733      0.762621      2.118718
  O      -1.537268      0.133519     -0.442622
  H      -1.883055      1.031684     -0.510183
  H      -1.799084     -0.320204     -1.284734
  O       0.199575      2.356468      0.725775
  H       0.989119      2.904928      0.815014
  H      -0.377428      2.837326      0.118829
  O       0.388591     -2.359118     -0.486173
  H       0.267040     -2.705262      0.406405
  H      -0.482456     -2.426477     -0.896639
  O       0.373858     -0.514579      1.903986
  H      -0.524919     -0.869660      1.881043
  H       0.325539      0.266953      2.470600
  O      -2.252675     -1.117290     -2.706559
  H      -2.004811     -0.558780     -3.452332
  H      -1.745849     -1.927734     -2.829543
19
Coordinates from ORCA-job pb_aquo6 E -651.041068373692
  Pb      0.927816      0.199047     -0.357596
  O       2.891137      1.020300      1.209306
  H       3.669910      0.501899      0.973564
  H       2.691241      0.763268      2.117570
  O      -1.538084      0.130640     -0.440215
  H      -1.882290      1.029584     -0.506839
  H      -1.798749     -0.320324     -1.284469
  O       0.195903      2.356596      0.724307
  H       0.986961      2.901497      0.821807
  H      -0.374485      2.841906      0.114730
  O       0.387640     -2.358917     -0.489267
  H       0.270565     -2.704415      0.404169
  H      -0.486447     -2.425386     -0.893665
  O       0.374331     -0.515152      1.903678
  H      -0.524963     -0.869050      1.880947
  H       0.326639      0.266835      2.469764
  O      -2.251570     -1.112412     -2.708377
  H      -1.990527     -0.560763     -3.454683
  H      -1.757207     -1.931494     -2.825140
19
Coordinates from ORCA-job pb_aquo6 E -651.041073516421
  Pb      0.927658      0.198670     -0.357375
  O       2.891115      1.022241      1.208604
  H       3.669193      0.503307      0.971541
  H       2.690898      0.764616      2.116580
  O      -1.538014      0.128326     -0.437596
  H      -1.880237      1.028074     -0.503414
  H      -1.797029     -0.320130     -1.284070
  O       0.191987      2.355999      0.722013
  H       0.982987      2.899015      0.828869
  H      -0.372218      2.844451      0.109326
  O       0.386531     -2.360900     -0.492836
  H       0.272245     -2.703700      0.401982
  H      -0.490845     -2.423761     -0.890582
  O       0.375202     -0.516344      1.903828
  H      -0.524761     -0.868418      1.880887
  H       0.328980      0.265861      2.469827
  O      -2.250889     -1.106305     -2.710321
  H      -1.975472     -0.563220     -3.457691
  H      -1.769512     -1.934121     -2.819979
19
Coordinates from ORCA-job pb_aquo6 E -651.041081219360
  Pb      0.928429      0.198056     -0.356446
  O       2.890216      1.024284      1.207728
  H       3.668886      0.506766      0.969308
  H       2.691221      0.766404      2.115921
  O      -1.537362      0.126948     -0.435567
  H      -1.877793      1.027491     -0.499020
  H      -1.794970     -0.318212     -1.284317
  O       0.188347      2.354535      0.718921
  H       0.977636      2.897735      0.836438
  H      -0.369829      2.844819      0.102345
  O       0.385303     -2.363951     -0.495690
  H       0.272310     -2.703332      0.400565
  H      -0.494962     -2.421390     -0.887830
  O       0.376457     -0.518087      1.904101
  H      -0.523948     -0.869019      1.880900
  H       0.331880      0.263248      2.471334
  O      -2.250571     -1.099332     -2.712742
  H      -1.960583     -0.567118     -3.462342
  H      -1.782849     -1.936186     -2.814015
19
Coordinates from ORCA-job pb_aquo6 E -651.041092202271
  Pb      0.929660      0.197146     -0.355547
  O       2.888227      1.027905      1.206685
  H       3.668681      0.514155      0.965657
  H       2.693279      0.769423      2.115510
  O      -1.536162      0.126285     -0.435247
  H      -1.876497      1.027032     -0.494597
  H      -1.793052     -0.315276     -1.286148
  O       0.183322      2.351978      0.715312
  H       0.970598      2.894480      0.847886
  H      -0.365952      2.845857      0.093905
  O       0.381950     -2.367270     -0.498835
  H       0.271559     -2.703341      0.398950
  H      -0.501912     -2.417130     -0.883856
  O       0.378825     -0.521424      1.903685
  H      -0.522372     -0.870064      1.880736
  H       0.337608      0.257652      2.474139
  O      -2.250379     -1.090264     -2.716741
  H      -1.936466     -0.573643     -3.467665
  H      -1.803097     -1.939843     -2.804238
19
Coordinates from ORCA-job pb_aquo6 E -651.041102127386
  Pb      0.930889      0.195941     -0.355267
  O       2.884326      1.033682      1.205456
  H       3.668353      0.527178      0.960759
  H       2.696768      0.773971      2.115477
  O      -1.535147      0.126634     -0.436672
  H      -1.877040      1.027208     -0.488968
  H      -1.792996     -0.310258     -1.289342
  O       0.176741      2.348230      0.710726
  H       0.962178      2.887901      0.864412
  H      -0.358406      2.848876      0.082558
  O       0.376274     -2.370399     -0.502699
  H       0.270492     -2.704406      0.396414
  H      -0.511673     -2.410843     -0.879686
  O       0.382418     -0.526792      1.902231
  H      -0.520150     -0.871976      1.880298
  H       0.346962      0.247904      2.478884
  O      -2.249913     -1.078621     -2.722892
  H      -1.899184     -0.584912     -3.472973
  H      -1.833072     -1.945660     -2.789124
19
Coordinates from ORCA-job pb_aquo6 E -651.041109371897
  Pb      0.929368      0.195440     -0.358122
  O       2.879702      1.040804      1.204283
  H       3.666210      0.540240      0.955454
  H       2.698639      0.779132      2.114849
  O      -1.536150      0.123715     -0.436203
  H      -1.879071      1.024384     -0.482028
  H      -1.796203     -0.308141     -1.290785
  O       0.168254      2.345382      0.706719
  H       0.956408      2.873897      0.884918
  H      -0.345469      2.860497      0.072363
  O       0.369271     -2.369965     -0.509213
  H       0.274018     -2.706120      0.390315
  H      -0.524292     -2.404524     -0.874513
  O       0.385395     -0.531836      1.898485
  H      -0.519511     -0.870774      1.879230
  H       0.357667      0.239841      2.479682
  O      -2.246989     -1.066174     -2.730514
  H      -1.848392     -0.598690     -3.473436
  H      -1.871033     -1.953446     -2.771895
19
Coordinates from ORCA-job pb_aquo6 E -651.041092751935
  Pb      0.932259      0.188563     -0.357700
  O       2.864261      1.044108      1.202946
  H       3.670265      0.578145      0.948726
  H       2.715655      0.784346      2.121222
  O      -1.534044      0.134381     -0.447339
  H      -1.895022      1.027878     -0.477483
  H      -1.803909     -0.299393     -1.295791
  O       0.172058      2.341791      0.702685
  H       0.956378      2.872659      0.883843
  H      -0.342035      2.849876      0.062597
  O       0.357625     -2.375882     -0.501583
  H       0.257780     -2.715619      0.395528
  H      -0.529298     -2.399255     -0.878430
  O       0.387806     -0.542103      1.893996
  H      -0.518930     -0.876793      1.880136
  H       0.372175      0.216164      2.492720
  O      -2.248124     -1.060808     -2.737594
  H      -1.813789     -0.602708     -3.466400
  H      -1.883294     -1.951688     -2.762488
19
Coordinates from ORCA-job pb_aquo6 E -651.041149810084
  Pb      0.926502      0.194135     -0.359831
  O       2.873309      1.045821      1.203228
  H       3.665984      0.556348      0.952178
  H       2.702266      0.784098      2.116066
  O      -1.539162      0.128340     -0.438153
  H      -1.887235      1.027224     -0.479007
  H      -1.802486     -0.303192     -1.291406
  O       0.167586      2.345877      0.705266
  H       0.958922      2.866542      0.891813
  H      -0.334841      2.865250      0.065215
  O       0.363771     -2.369256     -0.510967
  H       0.272676     -2.712091      0.386441
  H      -0.528431     -2.404489     -0.878256
  O       0.385717     -0.537550      1.896168
  H      -0.520198     -0.874340      1.880109
  H       0.364244      0.228957      2.484319
  O      -2.245258     -1.062422     -2.733772
  H      -1.817064     -0.607535     -3.468014
  H      -1.888480     -1.958059     -2.761807
19
Coordinates from ORCA-job pb_aquo6 E -651.041128632294
  Pb      0.925120      0.194377     -0.360683
  O       2.874035      1.047798      1.201663
  H       3.665503      0.555906      0.951119
  H       2.700464      0.785277      2.113673
  O      -1.540291      0.125579     -0.435771
  H      -1.886817      1.024930     -0.478051
  H      -1.802697     -0.305586     -1.289504
  O       0.166583      2.345454      0.706843
  H       0.959193      2.862799      0.898287
  H      -0.330416      2.868722      0.065452
  O       0.362370     -2.367464     -0.513247
  H       0.273309     -2.712413      0.383595
  H      -0.530739     -2.403483     -0.878635
  O       0.385160     -0.536444      1.895152
  H      -0.521045     -0.872322      1.878864
  H       0.363221      0.232089      2.480759
  O      -2.243202     -1.061483     -2.734031
  H      -1.807213     -0.610136     -3.465839
  H      -1.894719     -1.959940     -2.760055
19
Coordinates from ORCA-job pb_aquo6 E -651.041139172356
  Pb      0.921571      0.195362     -0.361137
  O       2.874071      1.052266      1.198315
  H       3.665101      0.558909      0.949318
  H       2.697722      0.789172      2.109708
  O      -1.543710      0.125803     -0.433937
  H      -1.888269      1.025947     -0.477291
  H      -1.805001     -0.304990     -1.288395
  O       0.164561      2.346147      0.709087
  H       0.959772      2.856026      0.910234
  H      -0.319233      2.874534      0.061922
  O       0.360515     -2.365180     -0.517723
  H       0.274579     -2.714306      0.377824
  H      -0.532506     -2.405974     -0.882880
  O       0.384507     -0.536841      1.895330
  H      -0.521560     -0.873240      1.879726
  H       0.362394      0.232304      2.480095
  O      -2.240936     -1.059044     -2.734965
  H      -1.786237     -0.618883     -3.462092
  H      -1.909521     -1.964351     -2.753548
19
Coordinates from ORCA-job pb_aquo6 E -651.041138718020
  Pb      0.920114      0.195213     -0.361901
  O       2.872025      1.057883      1.195841
  H       3.665768      0.567928      0.948931
  H       2.694353      0.793586      2.106601
  O      -1.545315      0.126630     -0.433022
  H      -1.889073      1.026903     -0.476133
  H      -1.806476     -0.303989     -1.287430
  O       0.164188      2.345673      0.711127
  H       0.959850      2.850158      0.923009
  H      -0.307332      2.877593      0.057543
  O       0.357320     -2.363904     -0.522254
  H       0.271776     -2.716723      0.371854
  H      -0.534985     -2.406607     -0.888283
  O       0.384694     -0.538547      1.894123
  H      -0.521758     -0.874125      1.879064
  H       0.363593      0.230616      2.479138
  O      -2.240270     -1.056884     -2.736377
  H      -1.762944     -0.629001     -3.456292
  H      -1.927708     -1.968743     -2.745950
19
Coordinates from ORCA-job pb_aquo6 E -651.041141921921
  Pb      0.919235      0.194635     -0.361192
  O       2.870280      1.062256      1.193758
  H       3.667972      0.578514      0.947063
  H       2.695383      0.797722      2.105060
  O      -1.545608      0.126954     -0.433091
  H      -1.889190      1.027443     -0.473834
  H      -1.807294     -0.302371     -1.288012
  O       0.162046      2.345211      0.711533
  H       0.957261      2.845550      0.934740
  H      -0.296856      2.878882      0.050515
  O       0.354104     -2.363210     -0.526215
  H       0.267352     -2.718066      0.366814
  H      -0.537177     -2.405911     -0.894589
  O       0.384611     -0.540589      1.894414
  H      -0.521563     -0.876697      1.879721
  H       0.364035      0.227357      2.480738
  O      -2.239829     -1.052676     -2.738826
  H      -1.739414     -0.639935     -3.451955
  H      -1.947527     -1.971410     -2.737050
19
Coordinates from ORCA-job pb_aquo6 E -651.041143081421
  Pb      0.920896      0.194096     -0.361796
  O       2.866982      1.066752      1.195875
  H       3.668544      0.589383      0.949792
  H       2.692383      0.799568      2.106505
  O      -1.544148      0.128926     -0.433679
  H      -1.888251      1.029160     -0.473015
  H      -1.806773     -0.300185     -1.288493
  O       0.162656      2.344525      0.709943
  H       0.956595      2.843885      0.938454
  H      -0.291096      2.878300      0.045410
  O       0.351654     -2.363506     -0.530240
  H       0.263593     -2.718595      0.362642
  H      -0.539373     -2.403939     -0.898741
  O       0.386325     -0.544950      1.892612
  H      -0.520657     -0.879020      1.877986
  H       0.367833      0.221458      2.481322
  O      -2.241866     -1.050602     -2.739334
  H      -1.724708     -0.648542     -3.446663
  H      -1.962769     -1.973052     -2.728991
19
Coordinates from ORCA-job pb_aquo6 E -651.041145507709
  Pb      0.922080      0.193932     -0.361171
  O       2.866452      1.067838      1.197581
  H       3.669373      0.593180      0.950599
  H       2.692988      0.799289      2.108039
  O      -1.542901      0.128943     -0.433615
  H      -1.887332      1.029107     -0.471744
  H      -1.806039     -0.299382     -1.288623
  O       0.162183      2.344606      0.708399
  H       0.955102      2.844830      0.939124
  H      -0.289792      2.877611      0.042051
  O       0.350955     -2.363102     -0.532308
  H       0.261302     -2.718176      0.360430
  H      -0.539800     -2.402171     -0.901883
  O       0.386842     -0.546236      1.892699
  H      -0.520013     -0.880652      1.877407
  H       0.368108      0.219536      2.482080
  O      -2.242551     -1.049293     -2.739423
  H      -1.718702     -0.652493     -3.444829
  H      -1.970438     -1.973707     -2.725224
19
Coordinates from ORCA-job pb_aquo6 E -651.041150776793
  Pb      0.925671      0.194832     -0.359277
  O       2.866679      1.067811      1.204541
  H       3.670279      0.595912      0.954079
  H       2.694074      0.794219      2.113697
  O      -1.539031      0.128775     -0.431634
  H      -1.885498      1.028311     -0.467907
  H      -1.803211     -0.298640     -1.287064
  O       0.161648      2.347020      0.703243
  H       0.952798      2.851958      0.930678
  H      -0.293874      2.874816      0.035309
  O       0.351105     -2.361336     -0.537037
  H       0.258977     -2.715971      0.355629
  H      -0.539518     -2.398552     -0.907883
  O       0.387853     -0.548520      1.892776
  H      -0.518097     -0.885016      1.875461
  H       0.366777      0.216239      2.483042
  O      -2.243941     -1.046571     -2.737546
  H      -1.712381     -0.657860     -3.441740
  H      -1.982490     -1.973767     -2.718776
19
Coordinates from ORCA-job pb_aquo6 E -651.041157808267
  Pb      0.929199      0.196696     -0.358711
  O       2.866713      1.067635      1.211392
  H       3.670062      0.596599      0.958539
  H       2.692748      0.788349      2.118425
  O      -1.536517      0.129763     -0.429659
  H      -1.884665      1.028777     -0.465830
  H      -1.801280     -0.298144     -1.284491
  O       0.161542      2.348947      0.698516
  H       0.951266      2.858267      0.922877
  H      -0.297167      2.874334      0.031061
  O       0.352503     -2.358996     -0.542103
  H       0.258731     -2.714498      0.350156
  H      -0.538111     -2.395412     -0.914033
  O       0.389155     -0.550355      1.891731
  H      -0.516190     -0.888492      1.871744
  H       0.365042      0.214047      2.482364
  O      -2.244431     -1.044243     -2.734080
  H      -1.704532     -0.664261     -3.436593
  H      -1.996248     -1.975355     -2.711715
19
Coordinates from ORCA-job pb_aquo6 E -651.041164541679
  Pb      0.932007      0.199762     -0.357306
  O       2.867507      1.066479      1.218483
  H       3.669723      0.595640      0.961169
  H       2.692076      0.778001      2.122334
  O      -1.533807      0.129103     -0.424173
  H      -1.886376      1.026543     -0.458458
  H      -1.799121     -0.298617     -1.279118
  O       0.160888      2.354357      0.693830
  H       0.950575      2.867864      0.908257
  H      -0.304938      2.872838      0.025905
  O       0.351794     -2.354745     -0.548461
  H       0.258560     -2.713716      0.342482
  H      -0.538830     -2.391117     -0.920329
  O       0.390363     -0.551293      1.891041
  H      -0.513344     -0.893385      1.867837
  H       0.360733      0.213076      2.481434
  O      -2.240685     -1.039469     -2.731202
  H      -1.686810     -0.672136     -3.429556
  H      -2.012497     -1.975528     -2.704579
19
Coordinates from ORCA-job pb_aquo6 E -651.041170450287
  Pb      0.932071      0.202044     -0.357699
  O       2.867339      1.066925      1.219787
  H       3.669191      0.596402      0.960757
  H       2.690615      0.772915      2.121523
  O      -1.534480      0.130755     -0.421194
  H      -1.889866      1.027001     -0.455342
  H      -1.798897     -0.297914     -1.275747
  O       0.160319      2.356879      0.693629
  H       0.950619      2.870890      0.903788
  H      -0.307442      2.874117      0.026027
  O       0.349645     -2.351867     -0.552287
  H       0.258255     -2.715194      0.337060
  H      -0.540953     -2.387996     -0.923662
  O       0.391675     -0.552347      1.889797
  H      -0.511262     -0.896429      1.864828
  H       0.358498      0.212565      2.479559
  O      -2.234900     -1.036053     -2.729858
  H      -1.665532     -0.682150     -3.422626
  H      -2.027075     -1.976885     -2.698751
19
Coordinates from ORCA-job pb_aquo6 E -651.041184822461
  Pb      0.930258      0.205507     -0.359261
  O       2.866598      1.067740      1.218038
  H       3.668473      0.598431      0.957301
  H       2.688893      0.767268      2.117436
  O      -1.536877      0.133842     -0.417579
  H      -1.895325      1.028665     -0.451192
  H      -1.799349     -0.295537     -1.271915
  O       0.160020      2.359735      0.697445
  H       0.951618      2.872812      0.902263
  H      -0.310287      2.877002      0.031281
  O       0.345040     -2.347728     -0.556976
  H       0.257216     -2.718226      0.329686
  H      -0.545332     -2.382466     -0.927344
  O       0.393268     -0.553016      1.887512
  H      -0.508951     -0.899289      1.860485
  H       0.355779      0.212692      2.476618
  O      -2.223651     -1.031749     -2.729758
  H      -1.629105     -0.702464     -3.413349
  H      -2.050467     -1.979560     -2.691099
19
Coordinates from ORCA-job pb_aquo6 E -651.041197012350
  Pb      0.930284      0.210963     -0.360196
  O       2.866944      1.069035      1.218096
  H       3.669935      0.603184      0.954749
  H       2.688547      0.760288      2.114570
  O      -1.537844      0.139529     -0.415696
  H      -1.899517      1.032686     -0.450554
  H      -1.797652     -0.292327     -1.269436
  O       0.160426      2.362688      0.703809
  H       0.952053      2.877107      0.903164
  H      -0.314717      2.879552      0.040824
  O       0.339188     -2.340304     -0.565118
  H       0.251412     -2.719343      0.317806
  H      -0.549915     -2.371532     -0.937347
  O       0.396036     -0.553833      1.884963
  H      -0.504415     -0.904600      1.853923
  H       0.350861      0.212187      2.473446
  O      -2.211118     -1.029305     -2.729253
  H      -1.584219     -0.737454     -3.400702
  H      -2.088470     -1.984864     -2.677459
19
Coordinates from ORCA-job pb_aquo6 E -651.041205595650
  Pb      0.923901      0.217505     -0.364691
  O       2.871765      1.059965      1.201868
  H       3.675500      0.594420      0.941742
  H       2.694424      0.755420      2.099906
  O      -1.542993      0.148332     -0.420033
  H      -1.902691      1.041286     -0.465187
  H      -1.796881     -0.291160     -1.269543
  O       0.168992      2.359730      0.732792
  H       0.959973      2.881712      0.907782
  H      -0.336486      2.878250      0.093448
  O       0.334253     -2.332583     -0.558399
  H       0.235252     -2.717027      0.320722
  H      -0.547855     -2.357739     -0.944351
  O       0.396182     -0.543146      1.885024
  H      -0.503494     -0.897293      1.850835
  H       0.342165      0.228082      2.466938
  O      -2.193042     -1.044220     -2.727228
  H      -1.561534     -0.766532     -3.399907
  H      -2.099610     -2.001343     -2.692129
19
Coordinates from ORCA-job pb_aquo6 E -651.041239899800
  Pb      0.931069      0.228414     -0.364043
  O       2.871567      1.062779      1.217348
  H       3.678742      0.605887      0.952794
  H       2.693503      0.745566      2.110974
  O      -1.535216      0.158143     -0.423180
  H      -1.895098      1.051216     -0.471683
  H      -1.793582     -0.287002     -1.269966
  O       0.173236      2.366893      0.738836
  H       0.963209      2.890556      0.914630
  H      -0.334976      2.884042      0.100640
  O       0.337612     -2.316814     -0.582558
  H       0.227393     -2.707313      0.292431
  H      -0.539752     -2.339693     -0.980500
  O       0.395510     -0.546756      1.878769
  H      -0.502553     -0.903102      1.837411
  H       0.335601      0.221038      2.464537
  O      -2.195419     -1.050398     -2.724854
  H      -1.519440     -0.835752     -3.377020
  H      -2.173587     -2.014046     -2.654974
19
Coordinates from ORCA-job pb_aquo6 E -651.041298875109
  Pb      0.943858      0.236436     -0.360895
  O       2.874852      1.067635      1.238640
  H       3.685619      0.619247      0.969627
  H       2.694345      0.737604      2.127180
  O      -1.522701      0.171626     -0.432110
  H      -1.884716      1.064086     -0.491295
  H      -1.785762     -0.283575     -1.272861
  O       0.175116      2.369231      0.738872
  H       0.960574      2.901591      0.915450
  H      -0.342374      2.881512      0.105596
  O       0.340892     -2.305237     -0.608163
  H       0.206242     -2.692675      0.265153
  H      -0.531348     -2.311807     -1.021122
  O       0.397833     -0.556877      1.874586
  H      -0.499839     -0.911577      1.826973
  H       0.337433      0.207688      2.463444
  O      -2.204485     -1.060087     -2.718639
  H      -1.495825     -0.901260     -3.352252
  H      -2.231894     -2.019902     -2.608595
19
Coordinates from ORCA-job pb_aquo6 E -651.041377486830
  Pb      0.952168      0.249131     -0.361471
  O       2.877118      1.073114      1.255507
  H       3.690003      0.630016      0.983137
  H       2.695050      0.734330      2.140458
  O      -1.510982      0.196255     -0.451686
  H      -1.867545      1.090803     -0.524687
  H      -1.778738     -0.268672     -1.285721
  O       0.181051      2.370317      0.753314
  H       0.963156      2.908378      0.931271
  H      -0.352584      2.885124      0.135616
  O       0.349350     -2.292328     -0.640038
  H       0.189179     -2.676083      0.231382
  H      -0.517851     -2.276793     -1.066814
  O       0.394026     -0.568499      1.864155
  H      -0.505393     -0.916458      1.811985
  H       0.340423      0.190188      2.460284
  O      -2.208882     -1.079384     -2.712009
  H      -1.465365     -1.010439     -3.321740
  H      -2.306362     -2.025339     -2.543353
19
Coordinates from ORCA-job pb_aquo6 E -651.041468519718
  Pb      0.955839      0.264048     -0.366139
  O       2.881176      1.076807      1.257545
  H       3.692998      0.633587      0.980322
  H       2.704428      0.738342      2.143796
  O      -1.509336      0.229856     -0.482499
  H      -1.854237      1.127862     -0.572544
  H      -1.775088     -0.243492     -1.310202
  O       0.183156      2.362394      0.785809
  H       0.963071      2.905667      0.959556
  H      -0.375831      2.885770      0.198314
  O       0.350072     -2.277036     -0.667346
  H       0.171263     -2.656453      0.202873
  H      -0.514976     -2.238223     -1.099378
  O       0.393937     -0.577497      1.851912
  H      -0.507766     -0.919916      1.799924
  H       0.348556      0.176564      2.453746
  O      -2.188400     -1.102818     -2.715279
  H      -1.407340     -1.156297     -3.278700
  H      -2.393703     -2.015507     -2.482122
19
Coordinates from ORCA-job pb_aquo6 E -651.041555643193
  Pb      0.948149      0.283064     -0.372856
  O       2.885670      1.079719      1.246356
  H       3.692956      0.626225      0.972336
  H       2.713296      0.761108      2.140719
  O      -1.503793      0.277165     -0.529687
  H      -1.820291      1.182645     -0.645838
  H      -1.772135     -0.214938     -1.349677
  O       0.195449      2.348110      0.847985
  H       0.973998      2.898736      1.007204
  H      -0.395577      2.882409      0.299660
  O       0.353103     -2.253487     -0.687129
  H       0.158688     -2.632828      0.179752
  H      -0.507442     -2.212838     -1.133423
  O       0.387937     -0.576702      1.840115
  H      -0.515603     -0.914750      1.796798
  H       0.354379      0.169700      2.450173
  O      -2.178778     -1.150080     -2.713565
  H      -1.388772     -1.305424     -3.245682
  H      -2.463416     -2.034174     -2.443648
19
Coordinates from ORCA-job pb_aquo6 E -651.041636406205
  Pb      0.950359      0.284059     -0.380055
  O       2.883437      1.079861      1.239916
  H       3.692641      0.629985      0.967987
  H       2.706929      0.759079      2.132319
  O      -1.506888      0.285178     -0.535263
  H      -1.813325      1.191011     -0.666553
  H      -1.766505     -0.210883     -1.350760
  O       0.198048      2.339701      0.865128
  H       0.971394      2.898274      1.013794
  H      -0.406800      2.874363      0.334391
  O       0.338961     -2.239178     -0.697116
  H       0.131613     -2.627731      0.162012
  H      -0.513223     -2.189600     -1.153492
  O       0.394297     -0.575550      1.833812
  H      -0.510655     -0.912744      1.790487
  H       0.358522      0.173929      2.442433
  O      -2.153191     -1.164275     -2.711086
  H      -1.347357     -1.361994     -3.202468
  H      -2.490438     -2.019826     -2.425897
19
Coordinates from ORCA-job pb_aquo6 E -651.041368053037
  Pb      0.952988      0.265940     -0.376680
  O       2.888454      1.072316      1.224789
  H       3.692237      0.609366      0.961612
  H       2.704689      0.762127      2.120155
  O      -1.539552      0.265338     -0.505219
  H      -1.845420      1.168994     -0.621897
  H      -1.776654     -0.216305     -1.334053
  O       0.193227      2.339640      0.846689
  H       0.967478      2.898586      0.983565
  H      -0.402606      2.867043      0.305998
  O       0.324295     -2.250553     -0.652884
  H       0.148034     -2.646445      0.207978
  H      -0.533692     -2.221157     -1.083384
  O       0.409317     -0.561015      1.848098
  H      -0.495706     -0.906402      1.822390
  H       0.375898      0.192640      2.455494
  O      -2.154102     -1.143056     -2.721567
  H      -1.388493     -1.240385     -3.297235
  H      -2.402572     -2.043013     -2.524259
19
Coordinates from ORCA-job pb_aquo6 E -651.041579407285
  Pb      0.957203      0.276609     -0.376422
  O       2.893048      1.074581      1.236910
  H       3.695348      0.610040      0.969505
  H       2.706131      0.749893      2.126084
  O      -1.527626      0.276761     -0.511627
  H      -1.851833      1.175316     -0.633721
  H      -1.769228     -0.218593     -1.334621
  O       0.187314      2.344935      0.846432
  H       0.965013      2.900880      0.984098
  H      -0.407074      2.871619      0.301711
  O       0.326556     -2.242736     -0.668497
  H       0.165814     -2.644201      0.192932
  H      -0.537833     -2.217751     -1.092647
  O       0.407815     -0.566533      1.842328
  H      -0.492311     -0.918005      1.809369
  H       0.363620      0.188270      2.446989
  O      -2.151040     -1.140466     -2.723273
  H      -1.362983     -1.272429     -3.260961
  H      -2.450116     -2.034531     -2.494998
19
Coordinates from ORCA-job pb_aquo6 E -651.041507746531
  Pb      0.937823      0.285747     -0.379081
  O       2.887580      1.081111      1.227159
  H       3.686511      0.613036      0.955192
  H       2.710278      0.769368      2.122192
  O      -1.496418      0.308008     -0.546109
  H      -1.808955      1.211972     -0.701678
  H      -1.762215     -0.210065     -1.347610
  O       0.196848      2.334169      0.876153
  H       0.972240      2.891987      1.015012
  H      -0.424394      2.870243      0.357292
  O       0.340133     -2.249209     -0.683914
  H       0.157279     -2.634247      0.183470
  H      -0.526217     -2.209727     -1.125568
  O       0.390127     -0.575216      1.833469
  H      -0.512110     -0.915480      1.791857
  H       0.354287      0.170962      2.443351
  O      -2.157079     -1.162205     -2.698974
  H      -1.362463     -1.328004     -3.221757
  H      -2.465435     -2.038790     -2.440865
19
Coordinates from ORCA-job pb_aquo6 E -651.041696913953
  Pb      0.949503      0.281126     -0.376566
  O       2.893314      1.079394      1.230736
  H       3.694795      0.613785      0.962297
  H       2.710836      0.761257      2.123184
  O      -1.518900      0.295375     -0.528841
  H      -1.828232      1.198371     -0.669038
  H      -1.771656     -0.211235     -1.341986
  O       0.191327      2.338863      0.865288
  H       0.966154      2.898175      1.002632
  H      -0.414279      2.866719      0.330092
  O       0.329776     -2.241249     -0.682547
  H       0.148538     -2.634919      0.179904
  H      -0.530222     -2.205300     -1.122297
  O       0.399609     -0.573353      1.839084
  H      -0.502398     -0.918588      1.802340
  H       0.360187      0.177492      2.446423
  O      -2.146792     -1.155948     -2.711391
  H      -1.348657     -1.323404     -3.226217
  H      -2.465085     -2.032903     -2.463507
19
Coordinates from ORCA-job pb_aquo6 E -651.041705451690
  Pb      0.950544      0.285098     -0.376681
  O       2.896536      1.076243      1.229665
  H       3.698210      0.609858      0.963748
  H       2.708938      0.755986      2.120095
  O      -1.519631      0.305605     -0.533907
  H      -1.824532      1.208590     -0.682400
  H      -1.767792     -0.204965     -1.345279
  O       0.193168      2.338869      0.874328
  H       0.963591      2.907983      0.997048
  H      -0.426866      2.861035      0.350135
  O       0.329111     -2.233877     -0.684884
  H       0.143445     -2.634458      0.173116
  H      -0.528170     -2.196615     -1.129774
  O       0.401910     -0.572381      1.837415
  H      -0.497681     -0.924596      1.800811
  H       0.356976      0.177873      2.445367
  O      -2.138733     -1.163976     -2.707868
  H      -1.339899     -1.351210     -3.214040
  H      -2.481306     -2.031404     -2.457303
19
Coordinates from ORCA-job pb_aquo6 E -651.041782681593
  Pb      0.949048      0.286904     -0.375540
  O       2.899486      1.072796      1.225914
  H       3.699891      0.603085      0.962239
  H       2.707925      0.753254      2.115638
  O      -1.521725      0.312711     -0.535725
  H      -1.823747      1.214887     -0.695365
  H      -1.766032     -0.204034     -1.343495
  O       0.195021      2.340404      0.880442
  H       0.963044      2.914654      0.991503
  H      -0.435958      2.858431      0.365052
  O       0.329691     -2.231925     -0.683645
  H       0.144795     -2.636622      0.172362
  H      -0.526664     -2.195540     -1.129632
  O       0.401527     -0.570132      1.837631
  H      -0.496246     -0.926842      1.802776
  H       0.354154      0.179432      2.446682
  O      -2.135165     -1.167765     -2.703605
  H      -1.338969     -1.356124     -3.213269
  H      -2.482258     -2.033915     -2.460373
19
Coordinates from ORCA-job pb_aquo6 E -651.041726402670
  Pb      0.948625      0.290924     -0.373327
  O       2.902323      1.070652      1.226648
  H       3.700708      0.597067      0.963145
  H       2.709459      0.751941      2.116582
  O      -1.521440      0.322222     -0.539543
  H      -1.817777      1.224307     -0.711377
  H      -1.766239     -0.203010     -1.342128
  O       0.196837      2.343397      0.885886
  H       0.962106      2.923297      0.985577
  H      -0.444818      2.854875      0.377081
  O       0.331782     -2.229074     -0.688601
  H       0.146231     -2.635011      0.166933
  H      -0.523657     -2.193529     -1.136368
  O       0.400133     -0.570864      1.837192
  H      -0.496211     -0.930772      1.803886
  H       0.351972      0.176347      2.449015
  O      -2.134335     -1.173199     -2.697894
  H      -1.339213     -1.368889     -3.206953
  H      -2.488668     -2.037022     -2.456165
19
Coordinates from ORCA-job pb_aquo6 E -651.041732571016
  Pb      0.948474      0.294584     -0.371072
  O       2.904479      1.066043      1.228343
  H       3.699332      0.586690      0.963926
  H       2.710910      0.748400      2.118821
  O      -1.522557      0.327551     -0.537483
  H      -1.815970      1.228533     -0.719801
  H      -1.768690     -0.205969     -1.334614
  O       0.199243      2.348400      0.885940
  H       0.962818      2.931966      0.975954
  H      -0.450292      2.852748      0.380145
  O       0.336264     -2.227190     -0.690054
  H       0.154801     -2.634731      0.165850
  H      -0.519649     -2.196712     -1.136582
  O       0.396951     -0.569508      1.836272
  H      -0.498142     -0.932853      1.803628
  H       0.347087      0.176337      2.449608
  O      -2.137512     -1.176462     -2.689842
  H      -1.346067     -1.357631     -3.210213
  H      -2.483660     -2.046535     -2.459234
19
Coordinates from ORCA-job pb_aquo6 E -651.041735993079
  Pb      0.948786      0.298769     -0.369918
  O       2.906341      1.061604      1.232493
  H       3.698036      0.577404      0.966946
  H       2.712222      0.745181      2.123327
  O      -1.521981      0.330651     -0.536947
  H      -1.815336      1.229910     -0.725974
  H      -1.770506     -0.208507     -1.329344
  O       0.199188      2.353582      0.886142
  H       0.962400      2.938405      0.970029
  H      -0.452507      2.852962      0.378873
  O       0.338722     -2.222803     -0.695464
  H       0.159360     -2.631848      0.160177
  H      -0.516860     -2.196317     -1.142831
  O       0.394889     -0.568714      1.834734
  H      -0.499797     -0.933103      1.803412
  H       0.346428      0.175623      2.450031
  O      -2.140577     -1.180929     -2.682578
  H      -1.350037     -1.353672     -3.207193
  H      -2.480953     -2.054541     -2.456325
19
Coordinates from ORCA-job pb_aquo6 E -651.041752345043
  Pb      0.950739      0.308169     -0.369505
  O       2.909432      1.050471      1.241560
  H       3.695115      0.557201      0.975656
  H       2.711921      0.736234      2.132284
  O      -1.522688      0.336404     -0.534106
  H      -1.813878      1.234282     -0.732935
  H      -1.772825     -0.210101     -1.320361
  O       0.201289      2.362704      0.886290
  H       0.960583      2.954974      0.954599
  H      -0.458129      2.851702      0.378549
  O       0.345251     -2.212115     -0.704829
  H       0.168062     -2.624526      0.149644
  H      -0.509836     -2.193411     -1.155215
  O       0.392758     -0.565921      1.830707
  H      -0.500072     -0.935349      1.799820
  H       0.342276      0.175600      2.449063
  O      -2.144257     -1.191667     -2.666058
  H      -1.360928     -1.349976     -3.205426
  H      -2.476995     -2.071014     -2.450146
19
Coordinates from ORCA-job pb_aquo6 E -651.041772608268
  Pb      0.949779      0.329470     -0.369740
  O       2.913044      1.031353      1.252507
  H       3.688864      0.519910      0.992728
  H       2.706073      0.728661      2.145240
  O      -1.521587      0.345472     -0.533970
  H      -1.805353      1.240835     -0.751543
  H      -1.773682     -0.213071     -1.310302
  O       0.202694      2.382139      0.894531
  H       0.961405      2.976140      0.957245
  H      -0.453708      2.862955      0.375723
  O       0.357473     -2.189285     -0.727078
  H       0.179908     -2.609089      0.123494
  H      -0.494198     -2.183362     -1.184600
  O       0.386502     -0.560387      1.821375
  H      -0.503560     -0.936371      1.795169
  H       0.337428      0.175377      2.446723
  O      -2.152802     -1.220104     -2.636518
  H      -1.388065     -1.360604     -3.205716
  H      -2.472395     -2.106378     -2.425677
19
Coordinates from ORCA-job pb_aquo6 E -651.041776685848
  Pb      0.952217      0.342414     -0.370259
  O       2.914363      1.017930      1.262063
  H       3.684449      0.496358      1.006021
  H       2.699934      0.718945      2.154229
  O      -1.523511      0.353636     -0.527723
  H      -1.807056      1.247328     -0.753611
  H      -1.773567     -0.210102     -1.300549
  O       0.204540      2.395118      0.892362
  H       0.959598      2.994168      0.954327
  H      -0.450644      2.868944      0.365043
  O       0.367764     -2.175900     -0.745858
  H       0.187839     -2.598789      0.102503
  H      -0.481947     -2.171554     -1.208103
  O       0.382158     -0.559596      1.814043
  H      -0.505599     -0.940423      1.785777
  H       0.329282      0.170833      2.445237
  O      -2.150992     -1.236380     -2.615028
  H      -1.400206     -1.379101     -3.201904
  H      -2.470802     -2.120168     -2.398979
19
Coordinates from ORCA-job pb_aquo6 E -651.041791142984
  Pb      0.951345      0.345093     -0.372817
  O       2.914472      1.010747      1.258030
  H       3.684627      0.486996      1.006641
  H       2.698367      0.717451      2.151427
  O      -1.526321      0.358499     -0.527621
  H      -1.811583      1.252039     -0.754349
  H      -1.771202     -0.205503     -1.300831
  O       0.202624      2.396215      0.893914
  H       0.957451      2.993785      0.967735
  H      -0.447545      2.876274      0.365363
  O       0.375589     -2.173684     -0.749855
  H       0.194382     -2.595034      0.098932
  H      -0.474014     -2.167386     -1.211625
  O       0.378468     -0.558378      1.811431
  H      -0.510601     -0.936064      1.778868
  H       0.324647      0.170727      2.444347
  O      -2.145760     -1.242392     -2.609532
  H      -1.402585     -1.395846     -3.203582
  H      -2.474540     -2.119881     -2.386885
19
Coordinates from ORCA-job pb_aquo6 E -651.041776130533
  Pb      0.948213      0.377237     -0.375359
  O       2.927359      0.967255      1.249025
  H       3.684515      0.416641      1.018368
  H       2.700271      0.707694      2.149891
  O      -1.526411      0.390527     -0.533411
  H      -1.815135      1.278394     -0.783376
  H      -1.760597     -0.196728     -1.295077
  O       0.194886      2.411364      0.914556
  H       0.939881      3.016954      1.021656
  H      -0.444009      2.903167      0.379872
  O       0.405479     -2.141728     -0.771266
  H       0.208504     -2.567363      0.072034
  H      -0.435951     -2.137946     -1.251271
  O       0.367227     -0.547280      1.800317
  H      -0.524253     -0.917289      1.754874
  H       0.306296      0.176192      2.439614
  O      -2.133131     -1.292553     -2.569955
  H      -1.443096     -1.468346     -3.220755
  H      -2.482230     -2.162531     -2.340145
19
Coordinates from ORCA-job pb_aquo6 E -651.041816470530
  Pb      0.949563      0.373170     -0.379257
  O       2.924952      0.976343      1.250305
  H       3.681351      0.425097      1.016664
  H       2.697857      0.713096      2.150471
  O      -1.525362      0.384303     -0.533124
  H      -1.815890      1.272118     -0.777234
  H      -1.765178     -0.199744     -1.292267
  O       0.192286      2.406146      0.910798
  H       0.943711      3.001079      1.028766
  H      -0.437633      2.902681      0.371994
  O       0.400988     -2.146060     -0.769226
  H       0.209105     -2.570037      0.076015
  H      -0.441684     -2.144410     -1.243758
  O       0.367619     -0.548516      1.797893
  H      -0.527248     -0.911168      1.749919
  H       0.313211      0.177341      2.434216
  O      -2.135145     -1.287130     -2.574982
  H      -1.434794     -1.454536     -3.216201
  H      -2.479891     -2.156115     -2.341402
19
Coordinates from ORCA-job pb_aquo6 E -651.041769151445
  Pb      0.967170      0.370171     -0.381408
  O       2.938004      1.005391      1.275549
  H       3.675520      0.435091      1.026584
  H       2.699177      0.723148      2.166811
  O      -1.516186      0.374466     -0.545534
  H      -1.806671      1.257307     -0.798010
  H      -1.763272     -0.212719     -1.295778
  O       0.197389      2.391183      0.909944
  H       0.947707      2.992368      0.984980
  H      -0.463898      2.869462      0.397131
  O       0.371243     -2.140342     -0.758416
  H       0.207086     -2.577494      0.085455
  H      -0.477653     -2.155111     -1.221133
  O       0.382164     -0.544987      1.795710
  H      -0.510643     -0.913424      1.760847
  H       0.341701      0.182335      2.430541
  O      -2.147691     -1.274354     -2.579599
  H      -1.446024     -1.413413     -3.222146
  H      -2.477304     -2.155417     -2.371935
19
Coordinates from ORCA-job pb_aquo6 E -651.041773205446
  Pb      0.953291      0.382369     -0.378272
  O       2.934595      0.974362      1.265335
  H       3.677574      0.409031      1.026494
  H       2.700857      0.708574      2.162318
  O      -1.527615      0.396708     -0.537381
  H      -1.807620      1.278328     -0.812422
  H      -1.766509     -0.204202     -1.283348
  O       0.200108      2.409379      0.914996
  H       0.941058      3.025274      0.979238
  H      -0.470765      2.880554      0.406800
  O       0.384316     -2.128225     -0.769010
  H       0.192783     -2.567039      0.069012
  H      -0.451810     -2.146837     -1.255984
  O       0.378243     -0.548556      1.796829
  H      -0.513970     -0.917509      1.762551
  H       0.332835      0.174817      2.436731
  O      -2.127969     -1.298852     -2.551428
  H      -1.441688     -1.443084     -3.211963
  H      -2.469895     -2.171432     -2.360905
19
Coordinates from ORCA-job pb_aquo6 E -651.040513502244
  Pb      0.954064      0.353291     -0.376675
  O       2.934900      0.993925      1.252562
  H       3.688359      0.439403      1.009851
  H       2.708884      0.719636      2.149652
  O      -1.516304      0.397965     -0.544158
  H      -1.804838      1.280364     -0.811657
  H      -1.772134     -0.209483     -1.281414
  O       0.203701      2.394302      0.923619
  H       0.951883      3.001595      0.978974
  H      -0.478822      2.865342      0.419972
  O       0.368865     -2.155358     -0.749520
  H       0.215120     -2.568424      0.108435
  H      -0.487915     -2.178681     -1.198497
  O       0.382628     -0.546189      1.816331
  H      -0.511430     -0.908871      1.773100
  H       0.334227      0.191882      2.439081
  O      -2.143791     -1.283598     -2.587788
  H      -1.430079     -1.362050     -3.233681
  H      -2.479499     -2.211391     -2.428597
19
Coordinates from ORCA-job pb_aquo6 E -651.041732636692
  Pb      0.962407      0.352503     -0.377698
  O       2.939706      0.994626      1.255063
  H       3.690232      0.441437      1.010562
  H       2.708548      0.719537      2.149606
  O      -1.526590      0.390632     -0.543658
  H      -1.813086      1.269185     -0.808735
  H      -1.778961     -0.214060     -1.282455
  O       0.201476      2.387703      0.916845
  H       0.948745      2.994789      0.970829
  H      -0.477584      2.854706      0.420614
  O       0.370629     -2.154619     -0.745525
  H       0.207519     -2.572075      0.109866
  H      -0.484945     -2.166990     -1.200294
  O       0.381625     -0.543806      1.813651
  H      -0.512785     -0.903820      1.768993
  H       0.334833      0.191951      2.436502
  O      -2.138265     -1.278886     -2.578225
  H      -1.436380     -1.376500     -3.227810
  H      -2.459307     -2.172653     -2.428540
19
Coordinates from ORCA-job pb_aquo6 E -651.041838107337
  Pb      0.959255      0.359584     -0.379260
  O       2.934242      0.997286      1.259218
  H       3.683570      0.441119      1.013506
  H       2.703316      0.719734      2.154199
  O      -1.514137      0.393870     -0.546415
  H      -1.801284      1.273149     -0.817989
  H      -1.765721     -0.211746     -1.281614
  O       0.202772      2.390107      0.918827
  H       0.948833      3.000506      0.975074
  H      -0.477563      2.859516      0.421520
  O       0.368415     -2.147745     -0.756701
  H       0.205315     -2.574554      0.093207
  H      -0.485816     -2.160762     -1.210062
  O       0.379395     -0.549191      1.805616
  H      -0.515844     -0.911227      1.760152
  H       0.331497      0.184899      2.432053
  O      -2.134258     -1.284353     -2.564975
  H      -1.435459     -1.393415     -3.218226
  H      -2.468709     -2.173116     -2.398541
19
Coordinates from ORCA-job pb_aquo6 E -651.041861683781
  Pb      0.960864      0.367082     -0.381301
  O       2.932225      0.994551      1.263259
  H       3.680998      0.436097      1.020834
  H       2.699554      0.718162      2.158391
  O      -1.517566      0.399845     -0.542223
  H      -1.803923      1.279974     -0.815558
  H      -1.761722     -0.205389     -1.280783
  O       0.207043      2.394089      0.918909
  H       0.948920      3.008689      0.976449
  H      -0.474445      2.865821      0.422673
  O       0.369936     -2.140754     -0.765081
  H       0.205833     -2.573832      0.080737
  H      -0.482808     -2.152434     -1.221343
  O       0.378691     -0.551568      1.797802
  H      -0.515338     -0.917139      1.754021
  H       0.328206      0.179190      2.428726
  O      -2.124874     -1.291355     -2.557348
  H      -1.435324     -1.426049     -3.216709
  H      -2.478451     -2.171321     -2.381866
19
Coordinates from ORCA-job pb_aquo6 E -651.041140494955
  Pb      0.941584      0.391914     -0.388388
  O       2.911574      0.970561      1.257832
  H       3.661347      0.410528      1.025724
  H       2.681893      0.703083      2.156231
  O      -1.551839      0.424312     -0.512563
  H      -1.820387      1.304067     -0.799843
  H      -1.778592     -0.180288     -1.252188
  O       0.215786      2.429402      0.915690
  H       0.960448      3.037202      0.975887
  H      -0.453392      2.896575      0.404642
  O       0.364515     -2.114657     -0.799060
  H       0.193778     -2.567741      0.035547
  H      -0.471389     -2.155903     -1.272036
  O       0.373799     -0.563924      1.773363
  H      -0.516540     -0.939991      1.739121
  H       0.317815      0.152927      2.421570
  O      -2.062449     -1.327500     -2.510770
  H      -1.381264     -1.497929     -3.171787
  H      -2.468867     -2.158979     -2.339380
19
Coordinates from ORCA-job pb_aquo6 E -651.041371180939
  Pb      0.938884      0.391709     -0.388521
  O       2.906904      0.967431      1.252613
  H       3.661302      0.411851      1.023996
  H       2.680425      0.702331      2.152345
  O      -1.556260      0.431751     -0.509148
  H      -1.822920      1.313219     -0.793699
  H      -1.783247     -0.173761     -1.250832
  O       0.218630      2.433029      0.917499
  H       0.963693      3.039745      0.981946
  H      -0.448518      2.902748      0.404341
  O       0.365084     -2.115713     -0.802095
  H       0.195487     -2.565966      0.034351
  H      -0.472449     -2.154586     -1.272610
  O       0.373283     -0.566585      1.773150
  H      -0.516541     -0.942284      1.736920
  H       0.313507      0.149165      2.422180
  O      -2.054351     -1.333922     -2.511064
  H      -1.371632     -1.509981     -3.170301
  H      -2.473462     -2.166521     -2.341477
19
Coordinates from ORCA-job pb_aquo6 E -651.041850244471
  Pb      0.939647      0.389763     -0.383625
  O       2.910144      0.969890      1.251433
  H       3.665702      0.418069      1.018960
  H       2.684263      0.708084      2.151305
  O      -1.534489      0.431903     -0.525238
  H      -1.808209      1.314786     -0.802455
  H      -1.770543     -0.171859     -1.266241
  O       0.217118      2.427451      0.926929
  H       0.960316      3.042304      0.989778
  H      -0.457409      2.899775      0.424427
  O       0.363691     -2.117034     -0.794637
  H       0.197130     -2.562179      0.045567
  H      -0.482914     -2.150090     -1.265924
  O       0.375622     -0.563947      1.781566
  H      -0.515357     -0.936714      1.741097
  H       0.318224      0.149289      2.432364
  O      -2.062079     -1.337825     -2.520493
  H      -1.396383     -1.515959     -3.194417
  H      -2.486657     -2.182047     -2.350805
19
Coordinates from ORCA-job pb_aquo6 E -651.041863168944
  Pb      0.961215      0.376912     -0.379256
  O       2.938947      0.979297      1.258182
  H       3.696711      0.433078      1.017472
  H       2.710599      0.714349      2.158625
  O      -1.537996      0.408930     -0.529382
  H      -1.821376      1.289603     -0.802492
  H      -1.758631     -0.197153     -1.281032
  O       0.211885      2.402752      0.924485
  H       0.951657      3.017059      0.995651
  H      -0.471357      2.875926      0.431136
  O       0.344688     -2.112641     -0.774297
  H       0.172708     -2.551432      0.066580
  H      -0.501453     -2.127623     -1.250138
  O       0.380078     -0.547804      1.804153
  H      -0.511943     -0.914241      1.755470
  H       0.333040      0.178036      2.439135
  O      -2.066272     -1.332676     -2.543735
  H      -1.422685     -1.486705     -3.242415
  H      -2.491996     -2.192009     -2.388550
19
Coordinates from ORCA-job pb_aquo6 E -651.041538208406
  Pb      0.958400      0.376472     -0.378120
  O       2.934325      0.976374      1.252583
  H       3.689013      0.429205      1.011893
  H       2.705088      0.710546      2.151090
  O      -1.526598      0.409617     -0.531176
  H      -1.804704      1.286316     -0.801363
  H      -1.755575     -0.185121     -1.270716
  O       0.209911      2.402749      0.923231
  H       0.941348      3.022162      0.995824
  H      -0.471031      2.874815      0.437894
  O       0.347053     -2.112549     -0.774308
  H       0.164449     -2.560734      0.062295
  H      -0.496716     -2.114638     -1.253436
  O       0.376365     -0.546908      1.798765
  H      -0.518616     -0.910100      1.747491
  H       0.329090      0.174983      2.438733
  O      -2.063327     -1.332822     -2.526759
  H      -1.421860     -1.493918     -3.253508
  H      -2.478796     -2.192788     -2.370824
19
Coordinates from ORCA-job pb_aquo6 E -651.041356022078
  Pb      0.957020      0.386755     -0.378337
  O       2.925708      0.975434      1.254275
  H       3.686860      0.425797      1.021413
  H       2.704329      0.702386      2.153387
  O      -1.500548      0.412810     -0.535434
  H      -1.792429      1.283204     -0.812245
  H      -1.739281     -0.187522     -1.259724
  O       0.208507      2.408559      0.925712
  H       0.949514      3.034599      1.005066
  H      -0.480222      2.886831      0.432791
  O       0.352039     -2.113130     -0.788411
  H       0.164661     -2.560073      0.048803
  H      -0.484118     -2.102703     -1.261599
  O       0.368723     -0.552034      1.787492
  H      -0.526397     -0.914954      1.734453
  H       0.316573      0.169846      2.430718
  O      -2.066786     -1.348719     -2.516900
  H      -1.451854     -1.501266     -3.227816
  H      -2.474481     -2.192159     -2.354053
19
Coordinates from ORCA-job pb_aquo6 E -651.041862263270
  Pb      0.964715      0.384120     -0.377474
  O       2.933255      0.977726      1.262790
  H       3.693008      0.427044      1.027289
  H       2.704919      0.708295      2.161661
  O      -1.517023      0.414595     -0.527230
  H      -1.805009      1.301438     -0.809510
  H      -1.755940     -0.196906     -1.270354
  O       0.213361      2.409316      0.923905
  H       0.946427      3.027803      1.001375
  H      -0.465435      2.883299      0.433718
  O       0.354785     -2.111936     -0.785637
  H       0.169221     -2.556707      0.049415
  H      -0.490067     -2.102590     -1.267529
  O       0.373699     -0.550412      1.793391
  H      -0.519842     -0.913562      1.739010
  H       0.322305      0.172661      2.432003
  O      -2.069884     -1.353404     -2.525824
  H      -1.449559     -1.497841     -3.238129
  H      -2.485117     -2.209279     -2.363279
19
Coordinates from ORCA-job pb_aquo6 E -651.041918944997
  Pb      0.969374      0.384343     -0.379697
  O       2.938323      0.974932      1.262695
  H       3.693852      0.427256      1.028737
  H       2.707314      0.704231      2.159917
  O      -1.520170      0.415314     -0.526868
  H      -1.811301      1.289561     -0.796079
  H      -1.756343     -0.192723     -1.268882
  O       0.214410      2.409211      0.925431
  H       0.953563      3.029903      1.004177
  H      -0.473524      2.884405      0.430239
  O       0.350307     -2.110290     -0.786564
  H       0.160754     -2.552294      0.048405
  H      -0.491950     -2.095342     -1.268782
  O       0.372859     -0.548351      1.791384
  H      -0.522618     -0.907140      1.736166
  H       0.322816      0.173742      2.430544
  O      -2.066198     -1.355086     -2.518627
  H      -1.438737     -1.503318     -3.248375
  H      -2.484914     -2.214696     -2.364231
19
Coordinates from ORCA-job pb_aquo6 E -651.042121326221
  Pb      0.964698      0.386823     -0.377899
  O       2.932091      0.975855      1.263130
  H       3.690315      0.427163      1.029429
  H       2.703137      0.705640      2.160888
  O      -1.512887      0.419869     -0.530182
  H      -1.798815      1.296986     -0.808508
  H      -1.751876     -0.185532     -1.261431
  O       0.212780      2.411966      0.925066
  H       0.947099      3.030578      1.003996
  H      -0.464733      2.887337      0.432787
  O       0.354391     -2.109307     -0.796169
  H       0.160906     -2.556201      0.037733
  H      -0.487091     -2.089477     -1.275765
  O       0.369674     -0.554246      1.787997
  H      -0.525650     -0.914563      1.731257
  H       0.316701      0.167887      2.427656
  O      -2.063020     -1.362315     -2.507509
  H      -1.446573     -1.510839     -3.235973
  H      -2.483329     -2.213965     -2.346911
19
Coordinates from ORCA-job pb_aquo6 E -651.042167310640
  Pb      0.972189      0.387520     -0.379010
  O       2.936794      0.974339      1.269939
  H       3.695497      0.422966      1.036468
  H       2.703618      0.704850      2.167996
  O      -1.516757      0.418208     -0.525335
  H      -1.808098      1.298863     -0.803058
  H      -1.752892     -0.191364     -1.263229
  O       0.215197      2.412788      0.925778
  H       0.952657      3.032134      1.004203
  H      -0.465314      2.887119      0.429937
  O       0.351952     -2.103169     -0.800414
  H       0.155032     -2.549014      0.033323
  H      -0.488266     -2.078122     -1.283872
  O       0.371649     -0.551515      1.788534
  H      -0.525059     -0.908609      1.728092
  H       0.320243      0.171841      2.428109
  O      -2.060093     -1.373599     -2.503795
  H      -1.459874     -1.513007     -3.237851
  H      -2.480656     -2.228571     -2.356222
19
Coordinates from ORCA-job pb_aquo6 E -651.042280554456
  Pb      0.970709      0.392108     -0.379314
  O       2.935599      0.970676      1.270707
  H       3.693367      0.419348      1.039524
  H       2.702726      0.702195      2.168582
  O      -1.513634      0.424064     -0.525706
  H      -1.806171      1.301397     -0.802872
  H      -1.750670     -0.185795     -1.260420
  O       0.216324      2.416148      0.928118
  H       0.952163      3.034951      1.006953
  H      -0.462675      2.891509      0.432155
  O       0.350367     -2.098600     -0.807823
  H       0.151824     -2.544146      0.024213
  H      -0.490070     -2.069324     -1.292101
  O       0.369965     -0.553165      1.785307
  H      -0.527115     -0.908092      1.724538
  H       0.318166      0.168912      2.425377
  O      -2.053649     -1.386118     -2.493572
  H      -1.460850     -1.523213     -3.239441
  H      -2.478555     -2.239197     -2.344634
19
Coordinates from ORCA-job pb_aquo6 E -651.042362960799
  Pb      0.972447      0.393854     -0.379101
  O       2.935344      0.969402      1.275057
  H       3.691597      0.416791      1.044041
  H       2.700697      0.700892      2.171917
  O      -1.512609      0.427621     -0.524589
  H      -1.804826      1.303545     -0.803696
  H      -1.753822     -0.183233     -1.253799
  O       0.217690      2.418488      0.927935
  H       0.954991      3.036143      1.006831
  H      -0.460200      2.893899      0.431280
  O       0.350763     -2.094114     -0.815906
  H       0.147597     -2.540967      0.014790
  H      -0.489368     -2.059558     -1.300808
  O       0.369066     -0.554025      1.782876
  H      -0.528340     -0.907535      1.719513
  H       0.316958      0.167705      2.423658
  O      -2.047782     -1.397510     -2.481627
  H      -1.466363     -1.528012     -3.240478
  H      -2.476021     -2.249728     -2.338302
19
Coordinates from ORCA-job pb_aquo6 E -651.042469981836
  Pb      0.974584      0.395789     -0.378323
  O       2.935726      0.968008      1.280376
  H       3.690968      0.415644      1.050078
  H       2.698028      0.698293      2.175199
  O      -1.510387      0.433346     -0.524835
  H      -1.804430      1.307578     -0.802486
  H      -1.756041     -0.178277     -1.250607
  O       0.220099      2.420511      0.929282
  H       0.958442      3.036793      1.008376
  H      -0.456168      2.897052      0.431952
  O       0.350766     -2.088271     -0.826992
  H       0.142991     -2.534390      0.001574
  H      -0.489599     -2.046998     -1.313161
  O       0.366797     -0.555175      1.779294
  H      -0.530996     -0.906278      1.713601
  H       0.314034      0.166279      2.420779
  O      -2.036715     -1.415317     -2.465705
  H      -1.474712     -1.538100     -3.240819
  H      -2.475570     -2.262828     -2.327994
19
Coordinates from ORCA-job pb_aquo6 E -651.042675589863
  Pb      0.979019      0.396992     -0.376360
  O       2.936219      0.967647      1.288523
  H       3.690325      0.413876      1.059010
  H       2.693797      0.696220      2.180759
  O      -1.508429      0.440700     -0.523557
  H      -1.803333      1.314089     -0.802026
  H      -1.759742     -0.173101     -1.244443
  O       0.222970      2.423873      0.929994
  H       0.964376      3.037271      1.007881
  H      -0.450930      2.900914      0.430493
  O       0.352016     -2.081367     -0.841824
  H       0.136037     -2.526985     -0.015670
  H      -0.488711     -2.028665     -1.330245
  O       0.364164     -0.557187      1.776014
  H      -0.533609     -0.906840      1.707803
  H       0.310130      0.164648      2.417150
  O      -2.020663     -1.440055     -2.442585
  H      -1.491864     -1.546965     -3.243056
  H      -2.473952     -2.281405     -2.318268
19
Coordinates from ORCA-job pb_aquo6 E -651.042955980591
  Pb      0.985644      0.393426     -0.372322
  O       2.936802      0.972310      1.299025
  H       3.691171      0.418652      1.068857
  H       2.687956      0.696353      2.187449
  O      -1.508008      0.450845     -0.523806
  H      -1.801226      1.326358     -0.802669
  H      -1.767202     -0.165899     -1.241226
  O       0.226164      2.425624      0.931570
  H       0.973722      3.033511      1.006595
  H      -0.444665      2.904405      0.429371
  O       0.355067     -2.075752     -0.859081
  H       0.127625     -2.520284     -0.035482
  H      -0.486502     -2.008143     -1.350995
  O       0.361421     -0.560906      1.773404
  H      -0.536340     -0.909870      1.701927
  H       0.305964      0.161357      2.414889
  O      -1.992368     -1.472110     -2.412952
  H      -1.515644     -1.560623     -3.244963
  H      -2.481762     -2.295594     -2.310000
19
Coordinates from ORCA-job pb_aquo6 E -651.043286443974
  Pb      0.990353      0.396477     -0.369966
  O       2.936357      0.971283      1.308172
  H       3.692242      0.416742      1.083049
  H       2.682276      0.694669      2.195184
  O      -1.504512      0.468095     -0.526690
  H      -1.799632      1.343035     -0.805020
  H      -1.764927     -0.149700     -1.240187
  O       0.229789      2.430193      0.938239
  H       0.981691      3.032574      1.009331
  H      -0.435960      2.911834      0.432191
  O       0.351853     -2.061282     -0.884196
  H       0.112948     -2.505724     -0.063543
  H      -0.489530     -1.975244     -1.380100
  O       0.357458     -0.566311      1.769442
  H      -0.540285     -0.914842      1.697144
  H       0.300297      0.156215      2.409622
  O      -1.947156     -1.523725     -2.370744
  H      -1.556800     -1.585400     -3.250132
  H      -2.478642     -2.325232     -2.292205
19
Coordinates from ORCA-job pb_aquo6 E -651.043339572562
  Pb      1.009195      0.377763     -0.357760
  O       2.939198      1.003436      1.332266
  H       3.707622      0.453081      1.106776
  H       2.678168      0.707618      2.216527
  O      -1.503996      0.479744     -0.551341
  H      -1.797031      1.364674     -0.832301
  H      -1.773401     -0.141858     -1.265026
  O       0.229181      2.421071      0.943222
  H       0.996699      3.008437      0.994516
  H      -0.427333      2.902642      0.422213
  O       0.368268     -2.073111     -0.891934
  H       0.121340     -2.504959     -0.061770
  H      -0.474010     -1.965516     -1.395172
  O       0.360668     -0.578372      1.782914
  H      -0.534794     -0.936962      1.719733
  H       0.308178      0.148850      2.417298
  O      -1.923021     -1.574794     -2.347643
  H      -1.649251     -1.553113     -3.269404
  H      -2.517862     -2.324970     -2.303525
19
Coordinates from ORCA-job pb_aquo6 E -651.043544699535
  Pb      0.991088      0.390337     -0.369232
  O       2.917746      0.994141      1.321815
  H       3.685760      0.454497      1.099071
  H       2.657853      0.696399      2.204010
  O      -1.508085      0.509817     -0.562073
  H      -1.788711      1.391538     -0.847560
  H      -1.786925     -0.110194     -1.266765
  O       0.237531      2.428251      0.947811
  H       1.003610      3.010945      1.023839
  H      -0.415641      2.921235      0.432550
  O       0.386524     -2.066547     -0.917014
  H       0.142277     -2.516597     -0.097929
  H      -0.457895     -1.961401     -1.409795
  O       0.347051     -0.592469      1.756611
  H      -0.550600     -0.945609      1.681418
  H       0.287908      0.118270      2.410505
  O      -1.888300     -1.593763     -2.306740
  H      -1.589780     -1.620865     -3.214942
  H      -2.553593     -2.294325     -2.225989
19
Coordinates from ORCA-job pb_aquo6 E -651.043691924670
  Pb      0.980692      0.394835     -0.374318
  O       2.904859      0.980303      1.321595
  H       3.661498      0.435266      1.097750
  H       2.648013      0.699687      2.206286
  O      -1.490440      0.493721     -0.555745
  H      -1.744773      1.369937     -0.864238
  H      -1.780161     -0.139365     -1.245255
  O       0.235931      2.428733      0.933209
  H       0.994075      3.014731      1.025225
  H      -0.420467      2.930373      0.427306
  O       0.407629     -2.068063     -0.909531
  H       0.185164     -2.517686     -0.090672
  H      -0.443732     -1.979652     -1.389399
  O       0.345095     -0.583050      1.755583
  H      -0.550986     -0.933169      1.665667
  H       0.278640      0.120258      2.418015
  O      -1.913554     -1.567295     -2.308589
  H      -1.644983     -1.569486     -3.240406
  H      -2.534682     -2.296419     -2.212893
19
Coordinates from ORCA-job pb_aquo6 E -651.043928291890
  Pb      0.990468      0.391752     -0.373589
  O       2.913004      0.984517      1.323454
  H       3.680034      0.440739      1.105057
  H       2.659213      0.704220      2.209878
  O      -1.498947      0.490613     -0.559509
  H      -1.768089      1.365802     -0.862878
  H      -1.752204     -0.137581     -1.269900
  O       0.225193      2.426451      0.940748
  H       0.984633      3.016405      1.028666
  H      -0.418858      2.920928      0.420789
  O       0.409974     -2.070489     -0.895787
  H       0.185610     -2.528723     -0.076967
  H      -0.438208     -1.983596     -1.384960
  O       0.348712     -0.583565      1.758444
  H      -0.545233     -0.942276      1.683711
  H       0.281651      0.130595      2.405625
  O      -1.910299     -1.573317     -2.315029
  H      -1.665492     -1.566743     -3.248931
  H      -2.563346     -2.272073     -2.229233
19
Coordinates from ORCA-job pb_aquo6 E -651.044040042383
  Pb      0.991710      0.390582     -0.375619
  O       2.912892      0.986326      1.323906
  H       3.679276      0.441289      1.105498
  H       2.652891      0.703579      2.209363
  O      -1.497204      0.486809     -0.561993
  H      -1.749253      1.363383     -0.881956
  H      -1.769624     -0.150478     -1.257914
  O       0.222581      2.424667      0.942126
  H       0.985081      3.012015      1.028897
  H      -0.422702      2.921241      0.422999
  O       0.417346     -2.072059     -0.898386
  H       0.193397     -2.525035     -0.076995
  H      -0.431207     -1.987858     -1.386836
  O       0.348152     -0.581802      1.759048
  H      -0.546006     -0.939768      1.679488
  H       0.280949      0.132281      2.406720
  O      -1.898563     -1.579501     -2.303615
  H      -1.673203     -1.553289     -3.239533
  H      -2.578694     -2.258722     -2.235607
19
Coordinates from ORCA-job pb_aquo6 E -651.044062760448
  Pb      0.991233      0.397525     -0.383705
  O       2.914623      0.985269      1.325196
  H       3.682071      0.440763      1.108397
  H       2.654033      0.705805      2.213738
  O      -1.492303      0.488348     -0.574374
  H      -1.740680      1.357229     -0.923699
  H      -1.767264     -0.162999     -1.254401
  O       0.214002      2.422315      0.950640
  H       0.973357      3.011981      1.042370
  H      -0.428964      2.913920      0.420775
  O       0.420953     -2.074115     -0.900361
  H       0.211318     -2.529601     -0.075531
  H      -0.429315     -2.002324     -1.384683
  O       0.346943     -0.584121      1.747790
  H      -0.547452     -0.944075      1.668341
  H       0.281187      0.129351      2.397926
  O      -1.893707     -1.579521     -2.288889
  H      -1.666433     -1.537799     -3.222908
  H      -2.605784     -2.224291     -2.207031
19
Coordinates from ORCA-job pb_aquo6 E -651.044181848894
  Pb      0.989718      0.394681     -0.386722
  O       2.908049      0.983266      1.327200
  H       3.678013      0.446018      1.113350
  H       2.656091      0.711113      2.218425
  O      -1.498815      0.494638     -0.581953
  H      -1.745353      1.357019     -0.939206
  H      -1.743622     -0.161225     -1.270594
  O       0.206178      2.417599      0.948088
  H       0.962506      3.005170      1.060596
  H      -0.421642      2.911982      0.404707
  O       0.436293     -2.077448     -0.897002
  H       0.229932     -2.537344     -0.074164
  H      -0.412138     -2.021091     -1.385115
  O       0.347896     -0.588115      1.746059
  H      -0.544640     -0.950834      1.664503
  H       0.275512      0.129095      2.391640
  O      -1.867062     -1.594297     -2.269216
  H      -1.710386     -1.525251     -3.222791
  H      -2.628711     -2.181316     -2.188214
19
Coordinates from ORCA-job pb_aquo6 E -651.044240850803
  Pb      0.987509      0.392285     -0.381840
  O       2.910147      0.979502      1.320840
  H       3.676620      0.436455      1.108026
  H       2.655909      0.707166      2.210428
  O      -1.500676      0.491065     -0.582423
  H      -1.728611      1.352534     -0.945463
  H      -1.749630     -0.168145     -1.267559
  O       0.205491      2.413973      0.948146
  H       0.958473      3.007139      1.056262
  H      -0.428542      2.906080      0.412379
  O       0.451388     -2.078789     -0.885068
  H       0.237607     -2.529968     -0.059720
  H      -0.392714     -2.032542     -1.381346
  O       0.348937     -0.580249      1.759518
  H      -0.544583     -0.938545      1.678771
  H       0.278351      0.139997      2.398836
  O      -1.890998     -1.588890     -2.285606
  H      -1.725772     -1.492156     -3.228731
  H      -2.631087     -2.203253     -2.215858
19
Coordinates from ORCA-job pb_aquo6 E -651.044247950570
  Pb      0.984942      0.402510     -0.385420
  O       2.911620      0.978574      1.323193
  H       3.671079      0.419176      1.108685
  H       2.644616      0.701217      2.207887
  O      -1.488935      0.502853     -0.591030
  H      -1.726996      1.358089     -0.972585
  H      -1.749125     -0.169976     -1.260692
  O       0.204394      2.416155      0.954489
  H       0.959556      3.009469      1.060989
  H      -0.433575      2.913068      0.425916
  O       0.465432     -2.073630     -0.896515
  H       0.274232     -2.529285     -0.070030
  H      -0.387541     -2.038816     -1.383134
  O       0.335963     -0.581427      1.743529
  H      -0.555991     -0.944491      1.660726
  H       0.262476      0.134890      2.388495
  O      -1.882757     -1.596108     -2.264430
  H      -1.726652     -1.513769     -3.212346
  H      -2.644919     -2.174839     -2.178134
19
Coordinates from ORCA-job pb_aquo6 E -651.044297607946
  Pb      0.990183      0.402234     -0.389448
  O       2.912567      0.976644      1.326450
  H       3.675594      0.425824      1.115510
  H       2.647885      0.702747      2.213155
  O      -1.489141      0.503131     -0.594010
  H      -1.724336      1.354977     -0.984281
  H      -1.746490     -0.175178     -1.257736
  O       0.204374      2.415096      0.957927
  H       0.957013      3.009298      1.064382
  H      -0.433151      2.905676      0.423594
  O       0.458419     -2.070981     -0.895780
  H       0.261984     -2.529649     -0.069626
  H      -0.390705     -2.034694     -1.385499
  O       0.338114     -0.581511      1.739566
  H      -0.556512     -0.938765      1.656680
  H       0.269580      0.135538      2.384862
  O      -1.878108     -1.604354     -2.258984
  H      -1.740678     -1.490400     -3.207576
  H      -2.638772     -2.191975     -2.179596
19
Coordinates from ORCA-job pb_aquo6 E -651.044294948470
  Pb      0.990809      0.395206     -0.388003
  O       2.909204      0.979598      1.323754
  H       3.675284      0.434721      1.110375
  H       2.647041      0.699694      2.209025
  O      -1.496972      0.501896     -0.590818
  H      -1.733409      1.356184     -0.971092
  H      -1.741960     -0.174478     -1.260843
  O       0.203278      2.411890      0.948883
  H       0.956551      3.003513      1.062239
  H      -0.430496      2.908463      0.416471
  O       0.464400     -2.079302     -0.892764
  H       0.265308     -2.533934     -0.065339
  H      -0.383616     -2.042247     -1.382503
  O       0.338120     -0.583488      1.745869
  H      -0.556830     -0.939148      1.658885
  H       0.265698      0.134341      2.389615
  O      -1.875489     -1.599014     -2.262480
  H      -1.732643     -1.488251     -3.210308
  H      -2.646459     -2.171985     -2.181377
19
Coordinates from ORCA-job pb_aquo6 E -651.044310476574
  Pb      0.989369      0.404079     -0.386658
  O       2.911828      0.972095      1.326151
  H       3.673149      0.419215      1.112615
  H       2.647165      0.694544      2.211095
  O      -1.491091      0.508973     -0.599110
  H      -1.725436      1.358336     -0.990001
  H      -1.740101     -0.174226     -1.260695
  O       0.204463      2.415235      0.955059
  H       0.955362      3.012023      1.059483
  H      -0.437844      2.907956      0.428443
  O       0.470645     -2.071267     -0.896691
  H       0.272526     -2.526019     -0.070111
  H      -0.378483     -2.037369     -1.386227
  O       0.333773     -0.581293      1.742894
  H      -0.561220     -0.935844      1.659749
  H       0.266245      0.133398      2.389974
  O      -1.880408     -1.607403     -2.258331
  H      -1.751975     -1.485629     -3.205489
  H      -2.640150     -2.193144     -2.172561
19
Coordinates from ORCA-job pb_aquo6 E -651.044332228738
  Pb      0.991787      0.404846     -0.389569
  O       2.911020      0.973803      1.327700
  H       3.672153      0.420964      1.113851
  H       2.643658      0.694200      2.211243
  O      -1.486067      0.512020     -0.604677
  H      -1.720312      1.358601     -1.004674
  H      -1.740840     -0.176874     -1.258757
  O       0.205894      2.412742      0.958835
  H       0.955871      3.010867      1.062602
  H      -0.440728      2.904969      0.436883
  O       0.474560     -2.070253     -0.896596
  H       0.280665     -2.528568     -0.070464
  H      -0.376704     -2.037940     -1.384109
  O       0.330137     -0.581889      1.734473
  H      -0.566618     -0.932740      1.650521
  H       0.265209      0.130764      2.384486
  O      -1.878438     -1.610943     -2.250875
  H      -1.758155     -1.483634     -3.198534
  H      -2.645271     -2.187276     -2.162748
19
Coordinates from ORCA-job pb_aquo6 E -651.044335928866
  Pb      0.991514      0.411033     -0.390496
  O       2.915013      0.965367      1.329114
  H       3.671617      0.406797      1.113439
  H       2.644276      0.683601      2.211003
  O      -1.487307      0.517864     -0.610217
  H      -1.720686      1.359986     -1.020299
  H      -1.738619     -0.179316     -1.257192
  O       0.204450      2.415467      0.963128
  H       0.952093      3.018791      1.057230
  H      -0.449892      2.901957      0.446034
  O       0.480996     -2.064564     -0.900322
  H       0.290609     -2.523884     -0.074134
  H      -0.370721     -2.037656     -1.386206
  O       0.325188     -0.579366      1.731440
  H      -0.572402     -0.928181      1.646108
  H       0.262567      0.131752      2.383517
  O      -1.872743     -1.617747     -2.242343
  H      -1.764030     -1.480368     -3.190929
  H      -2.644105     -2.187874     -2.149286
19
Coordinates from ORCA-job pb_aquo6 E -651.044345305136
  Pb      0.992800      0.414409     -0.391141
  O       2.916261      0.959061      1.329966
  H       3.670720      0.398948      1.111949
  H       2.644520      0.674901      2.210857
  O      -1.487409      0.521763     -0.613423
  H      -1.722881      1.362015     -1.025517
  H      -1.736460     -0.178508     -1.257082
  O       0.206017      2.417507      0.964281
  H       0.949869      3.025578      1.052490
  H      -0.456309      2.899654      0.453533
  O       0.487899     -2.061678     -0.901674
  H       0.299079     -2.521411     -0.075138
  H      -0.365373     -2.034452     -1.384877
  O       0.320231     -0.578378      1.727691
  H      -0.578961     -0.922571      1.640856
  H       0.260571      0.129439      2.383773
  O      -1.871744     -1.620313     -2.239284
  H      -1.767734     -1.483264     -3.187998
  H      -2.643277     -2.189040     -2.139670
19
Coordinates from ORCA-job pb_aquo6 E -651.044342378264
  Pb      0.993200      0.420461     -0.392419
  O       2.917999      0.950010      1.330627
  H       3.667125      0.384406      1.109134
  H       2.644827      0.663992      2.210597
  O      -1.488305      0.524508     -0.616435
  H      -1.724064      1.362861     -1.030974
  H      -1.735819     -0.178781     -1.257582
  O       0.206959      2.420582      0.966523
  H       0.947658      3.033568      1.048438
  H      -0.463273      2.898667      0.462242
  O       0.498007     -2.056790     -0.903957
  H       0.310799     -2.516462     -0.077108
  H      -0.356762     -2.030512     -1.384491
  O       0.313796     -0.575815      1.724274
  H      -0.587190     -0.914166      1.635848
  H       0.257611      0.129214      2.383104
  O      -1.869425     -1.623628     -2.235480
  H      -1.774583     -1.487940     -3.185068
  H      -2.640743     -2.190516     -2.127684
19
Coordinates from ORCA-job pb_aquo6 E -651.044351117216
  Pb      0.992937      0.426046     -0.393859
  O       2.919487      0.942335      1.331454
  H       3.664394      0.372204      1.107294
  H       2.645333      0.655477      2.210848
  O      -1.488883      0.525008     -0.617020
  H      -1.725993      1.362781     -1.031677
  H      -1.736359     -0.178633     -1.258201
  O       0.207924      2.424089      0.969087
  H       0.946495      3.040859      1.044994
  H      -0.467788      2.898096      0.468465
  O       0.503612     -2.051956     -0.905801
  H       0.317909     -2.511405     -0.078612
  H      -0.352324     -2.026194     -1.384378
  O       0.309662     -0.573659      1.721325
  H      -0.592971     -0.906807      1.630918
  H       0.256428      0.129367      2.382479
  O      -1.867854     -1.625382     -2.234025
  H      -1.777235     -1.494959     -3.184671
  H      -2.636954     -2.193607     -2.119029
19
Coordinates from ORCA-job pb_aquo6 E -651.044362068943
  Pb      0.992514      0.430593     -0.395276
  O       2.920115      0.935038      1.332066
  H       3.661433      0.361148      1.105280
  H       2.645499      0.647603      2.211075
  O      -1.490329      0.524853     -0.616859
  H      -1.727306      1.362631     -1.032138
  H      -1.736184     -0.178285     -1.259614
  O       0.208997      2.426876      0.972038
  H       0.944835      3.048007      1.040688
  H      -0.472725      2.895501      0.474410
  O       0.508968     -2.048187     -0.907109
  H       0.324802     -2.506332     -0.078889
  H      -0.347784     -2.023242     -1.384373
  O       0.306471     -0.571659      1.719101
  H      -0.597692     -0.900010      1.626969
  H       0.255850      0.130500      2.381298
  O      -1.865108     -1.626365     -2.232834
  H      -1.780366     -1.501659     -3.184989
  H      -2.634170     -2.193352     -2.111251
19
Coordinates from ORCA-job pb_aquo6 E -651.044362519774
  Pb      0.992040      0.434387     -0.396307
  O       2.920874      0.929016      1.332787
  H       3.659199      0.351974      1.103916
  H       2.644908      0.640144      2.210903
  O      -1.491252      0.525902     -0.616825
  H      -1.728561      1.363552     -1.032540
  H      -1.736041     -0.176977     -1.260709
  O       0.210760      2.429155      0.975128
  H       0.943544      3.055031      1.035185
  H      -0.477450      2.892154      0.481008
  O       0.512639     -2.044552     -0.908857
  H       0.330791     -2.502725     -0.079908
  H      -0.345067     -2.020832     -1.384785
  O       0.303258     -0.570078      1.716695
  H      -0.602377     -0.894490      1.623654
  H       0.255344      0.131599      2.379664
  O      -1.862696     -1.627139     -2.231486
  H      -1.781578     -1.507808     -3.184715
  H      -2.630517     -2.194655     -2.103215
19
Coordinates from ORCA-job pb_aquo6 E -651.044325485840
  Pb      0.991671      0.436677     -0.396847
  O       2.921143      0.924650      1.333482
  H       3.658115      0.346138      1.103694
  H       2.643761      0.634314      2.210727
  O      -1.491662      0.527468     -0.617131
  H      -1.728582      1.365020     -1.033729
  H      -1.734901     -0.175044     -1.261673
  O       0.211883      2.430774      0.977260
  H       0.942111      3.060159      1.030333
  H      -0.481515      2.889036      0.485929
  O       0.515908     -2.042581     -0.910915
  H       0.336077     -2.500319     -0.081225
  H      -0.342455     -2.019759     -1.385679
  O       0.300505     -0.569367      1.714686
  H      -0.606264     -0.890846      1.621124
  H       0.254674      0.131913      2.378546
  O      -1.860473     -1.627597     -2.229858
  H      -1.784340     -1.512402     -3.183997
  H      -2.627834     -2.194575     -2.095138
19
Coordinates from ORCA-job pb_aquo6 E -651.044355041673
  Pb      0.992051      0.437913     -0.396752
  O       2.921495      0.921258      1.334742
  H       3.657251      0.341554      1.103714
  H       2.642698      0.628663      2.210648
  O      -1.491790      0.530628     -0.618182
  H      -1.727864      1.368272     -1.035403
  H      -1.733058     -0.171542     -1.263613
  O       0.213614      2.431685      0.979618
  H       0.940504      3.065426      1.023553
  H      -0.486695      2.884337      0.492714
  O       0.519246     -2.040870     -0.913414
  H       0.342255     -2.499238     -0.083293
  H      -0.339898     -2.019737     -1.386824
  O       0.297125     -0.569122      1.712642
  H      -0.610661     -0.887804      1.618903
  H       0.253217      0.132029      2.376992
  O      -1.858381     -1.627735     -2.228113
  H      -1.788264     -1.517979     -3.183313
  H      -2.625027     -2.194080     -2.085028
19
Coordinates from ORCA-job pb_aquo6 E -651.044401060879
  Pb      0.993359      0.438980     -0.396338
  O       2.921768      0.918591      1.336870
  H       3.657463      0.338886      1.105558
  H       2.641085      0.623277      2.211330
  O      -1.490168      0.534010     -0.620255
  H      -1.725496      1.371718     -1.037492
  H      -1.730516     -0.167977     -1.265648
  O       0.214824      2.432650      0.981224
  H       0.938767      3.070021      1.017232
  H      -0.491418      2.880331      0.498460
  O       0.523240     -2.039382     -0.917046
  H       0.349200     -2.499135     -0.087026
  H      -0.336843     -2.019681     -1.388687
  O       0.293108     -0.569379      1.709960
  H      -0.615620     -0.885504      1.615305
  H       0.250511      0.130957      2.375494
  O      -1.857072     -1.627595     -2.225693
  H      -1.796252     -1.523702     -3.181967
  H      -2.622120     -2.193406     -2.071688
19
Coordinates from ORCA-job pb_aquo6 E -651.044379292756
  Pb      0.995758      0.440229     -0.395879
  O       2.922065      0.916146      1.339832
  H       3.657711      0.336586      1.108070
  H       2.640243      0.618657      2.213129
  O      -1.487791      0.537639     -0.623318
  H      -1.722604      1.375388     -1.040703
  H      -1.727720     -0.164595     -1.268339
  O       0.215773      2.433171      0.982681
  H       0.936897      3.074086      1.011331
  H      -0.496386      2.876417      0.504553
  O       0.527478     -2.037360     -0.920949
  H       0.356162     -2.498654     -0.091344
  H      -0.333713     -2.019226     -1.390511
  O       0.289334     -0.569919      1.707268
  H      -0.620076     -0.883303      1.611082
  H       0.247678      0.129266      2.373998
  O      -1.856947     -1.627543     -2.223310
  H      -1.806031     -1.530664     -3.180710
  H      -2.620012     -2.192661     -2.057288
19
Coordinates from ORCA-job pb_aquo6 E -651.044404754353
  Pb      1.000087      0.442470     -0.395655
  O       2.921848      0.913921      1.344689
  H       3.658219      0.335058      1.113486
  H       2.638736      0.614609      2.217016
  O      -1.483016      0.540734     -0.627590
  H      -1.718361      1.378323     -1.044122
  H      -1.724414     -0.162280     -1.271315
  O       0.216408      2.433968      0.983409
  H       0.935387      3.077668      1.007423
  H      -0.500002      2.873715      0.508817
  O       0.532970     -2.034025     -0.926708
  H       0.364865     -2.497919     -0.098103
  H      -0.329900     -2.017443     -1.393045
  O       0.285244     -0.570836      1.703275
  H      -0.624572     -0.881370      1.603493
  H       0.243429      0.126410      2.371691
  O      -1.858885     -1.627783     -2.219786
  H      -1.821152     -1.539596     -3.178460
  H      -2.619072     -2.191965     -2.038923
19
Coordinates from ORCA-job pb_aquo6 E -651.044412217623
  Pb      1.004381      0.445504     -0.395979
  O       2.921263      0.911337      1.349938
  H       3.657965      0.332907      1.118927
  H       2.637181      0.610841      2.221569
  O      -1.478260      0.543523     -0.631763
  H      -1.714119      1.380799     -1.048667
  H      -1.721485     -0.160631     -1.273873
  O       0.217620      2.434605      0.984312
  H       0.933886      3.081783      1.003621
  H      -0.503394      2.870847      0.513395
  O       0.538353     -2.030374     -0.932749
  H       0.373663     -2.496041     -0.104608
  H      -0.326512     -2.015081     -1.395585
  O       0.281707     -0.571861      1.699100
  H      -0.628579     -0.879356      1.595354
  H       0.239790      0.123396      2.369206
  O      -1.861381     -1.628549     -2.215814
  H      -1.835311     -1.548560     -3.175545
  H      -2.618949     -2.191429     -2.021249
19
Coordinates from ORCA-job pb_aquo6 E -651.044424094400
  Pb      1.009815      0.450316     -0.397245
  O       2.919479      0.907983      1.356888
  H       3.656912      0.329996      1.127154
  H       2.634110      0.607521      2.228162
  O      -1.471951      0.545746     -0.636012
  H      -1.709536      1.381964     -1.053996
  H      -1.718930     -0.160542     -1.275170
  O       0.219230      2.435966      0.984680
  H       0.933599      3.085703      1.002968
  H      -0.504229      2.869540      0.515156
  O       0.545211     -2.024969     -0.941424
  H       0.385288     -2.492576     -0.113488
  H      -0.322472     -2.010628     -1.398962
  O       0.277922     -0.573305      1.693145
  H      -0.632651     -0.877316      1.583059
  H       0.234817      0.119858      2.364947
  O      -1.865898     -1.630742     -2.209210
  H      -1.852291     -1.558360     -3.169947
  H      -2.620606     -2.192497     -2.001114
19
Coordinates from ORCA-job pb_aquo6 E -651.044444621235
  Pb      1.015399      0.456293     -0.398760
  O       2.917465      0.902197      1.364609
  H       3.655007      0.323960      1.135838
  H       2.629435      0.600688      2.234723
  O      -1.465951      0.550350     -0.640815
  H      -1.704730      1.385167     -1.061264
  H      -1.715580     -0.158587     -1.276465
  O       0.222011      2.437753      0.985940
  H       0.932096      3.092539      0.999123
  H      -0.506900      2.866430      0.520193
  O       0.554615     -2.018440     -0.952189
  H       0.402087     -2.488237     -0.123994
  H      -0.316741     -2.005660     -1.403035
  O       0.272082     -0.574758      1.685005
  H      -0.639340     -0.873929      1.568004
  H       0.228278      0.115931      2.359206
  O      -1.869525     -1.633898     -2.199989
  H      -1.870657     -1.570981     -3.161629
  H      -2.621230     -2.193158     -1.974910
19
Coordinates from ORCA-job pb_aquo6 E -651.044472221878
  Pb      1.024793      0.469103     -0.403965
  O       2.909095      0.891829      1.378820
  H       3.648254      0.313747      1.155025
  H       2.616607      0.593687      2.248547
  O      -1.455066      0.556164     -0.645424
  H      -1.696625      1.385998     -1.075356
  H      -1.712865     -0.160065     -1.270364
  O       0.227895      2.442787      0.986215
  H       0.935095      3.100510      1.004136
  H      -0.501503      2.868040      0.517758
  O       0.570443     -2.005498     -0.975665
  H       0.433964     -2.478214     -0.145805
  H      -0.308516     -1.993103     -1.411180
  O       0.264078     -0.578335      1.667791
  H      -0.647827     -0.870812      1.535434
  H       0.215361      0.109723      2.344699
  O      -1.880275     -1.643498     -2.176467
  H      -1.896628     -1.587033     -3.138940
  H      -2.628460     -2.201371     -1.935667
19
Coordinates from ORCA-job pb_aquo6 E -651.044487483390
  Pb      1.027798      0.473524     -0.404291
  O       2.908970      0.882235      1.382848
  H       3.646478      0.301904      1.159185
  H       2.610715      0.579518      2.249115
  O      -1.453981      0.567270     -0.650516
  H      -1.694250      1.395373     -1.084197
  H      -1.708833     -0.151795     -1.272809
  O       0.230499      2.445083      0.989897
  H       0.931232      3.109786      0.994763
  H      -0.508878      2.862706      0.530192
  O       0.582955     -1.999469     -0.985426
  H       0.455460     -2.475332     -0.155793
  H      -0.299240     -1.990522     -1.414533
  O       0.253248     -0.578740      1.658039
  H      -0.660123     -0.864734      1.521572
  H       0.205833      0.106869      2.337821
  O      -1.877207     -1.646836     -2.165491
  H      -1.911919     -1.601886     -3.127818
  H      -2.620938     -2.201295     -1.902965
19
Coordinates from ORCA-job pb_aquo6 E -651.044501071863
  Pb      1.030726      0.479644     -0.406298
  O       2.906552      0.869812      1.385515
  H       3.643134      0.285944      1.167972
  H       2.597481      0.565759      2.247231
  O      -1.454060      0.586821     -0.659736
  H      -1.688750      1.407185     -1.109953
  H      -1.706887     -0.142788     -1.268361
  O       0.233389      2.447599      0.997359
  H       0.930261      3.115521      0.995738
  H      -0.512218      2.861494      0.544409
  O       0.599734     -1.990379     -1.000386
  H       0.488689     -2.473190     -0.172925
  H      -0.288206     -1.985915     -1.417823
  O       0.240706     -0.578275      1.641726
  H      -0.672334     -0.861052      1.497291
  H       0.188878      0.105147      2.323772
  O      -1.876591     -1.656589     -2.140423
  H      -1.925831     -1.613897     -3.101528
  H      -2.616855     -2.209183     -1.863989
19
Coordinates from ORCA-job pb_aquo6 E -651.044511742064
  Pb      1.037950      0.493986     -0.411158
  O       2.900826      0.852060      1.396841
  H       3.634020      0.264183      1.180049
  H       2.586706      0.549271      2.257345
  O      -1.445460      0.594084     -0.666102
  H      -1.674788      1.408253     -1.131863
  H      -1.705918     -0.144033     -1.263217
  O       0.238511      2.453882      1.002828
  H       0.928064      3.129901      0.989097
  H      -0.516749      2.857546      0.554625
  O       0.619347     -1.973372     -1.022293
  H       0.524785     -2.461269     -0.194706
  H      -0.276012     -1.973673     -1.425313
  O       0.226398     -0.578125      1.625211
  H      -0.687922     -0.850393      1.467355
  H       0.175557      0.101061      2.311433
  O      -1.881719     -1.662856     -2.116921
  H      -1.955893     -1.628089     -3.076732
  H      -2.609882     -2.218756     -1.816890
19
Coordinates from ORCA-job pb_aquo6 E -651.044516115264
  Pb      1.036375      0.492162     -0.412210
  O       2.899315      0.858414      1.396519
  H       3.632109      0.269245      1.183800
  H       2.582819      0.559848      2.256839
  O      -1.445984      0.602085     -0.673388
  H      -1.665945      1.407275     -1.157718
  H      -1.706964     -0.146788     -1.257537
  O       0.237915      2.454024      1.005407
  H       0.933360      3.123731      0.999047
  H      -0.511926      2.861947      0.553635
  O       0.617459     -1.971903     -1.025618
  H       0.530908     -2.471507     -0.204414
  H      -0.278882     -1.976683     -1.426352
  O       0.227259     -0.579876      1.625507
  H      -0.682966     -0.863678      1.469162
  H       0.170154      0.098250      2.312769
  O      -1.885836     -1.664097     -2.105177
  H      -1.957634     -1.614787     -3.065391
  H      -2.613718     -2.224005     -1.815289
19
Coordinates from ORCA-job pb_aquo6 E -651.044524090521
  Pb      1.034374      0.492502     -0.411105
  O       2.903212      0.848934      1.393705
  H       3.635209      0.257487      1.181712
  H       2.583355      0.548333      2.252380
  O      -1.456978      0.614988     -0.679158
  H      -1.674331      1.417157     -1.168676
  H      -1.711671     -0.138751     -1.258311
  O       0.239953      2.453941      1.010025
  H       0.927646      3.131187      0.991610
  H      -0.518013      2.857499      0.568651
  O       0.622374     -1.971879     -1.023938
  H       0.538288     -2.470693     -0.203589
  H      -0.274974     -1.975412     -1.422131
  O       0.225977     -0.576405      1.623449
  H      -0.685462     -0.858296      1.469342
  H       0.169482      0.101516      2.310638
  O      -1.881744     -1.667793     -2.100780
  H      -1.949029     -1.619623     -3.060472
  H      -2.609849     -2.231033     -1.813761
19
Coordinates from ORCA-job pb_aquo6 E -651.044529823688
  Pb      1.037100      0.497319     -0.413054
  O       2.900312      0.846861      1.397269
  H       3.631717      0.254497      1.185852
  H       2.579946      0.546844      2.256307
  O      -1.446175      0.615012     -0.684586
  H      -1.668161      1.414343     -1.176592
  H      -1.706875     -0.138207     -1.258685
  O       0.239246      2.455342      1.011641
  H       0.929814      3.130124      1.003532
  H      -0.516049      2.861773      0.569514
  O       0.629739     -1.966424     -1.033477
  H       0.550107     -2.467496     -0.213995
  H      -0.270671     -1.971591     -1.425555
  O       0.218277     -0.577649      1.613559
  H      -0.694103     -0.853806      1.455157
  H       0.161588      0.097292      2.303194
  O      -1.884246     -1.669523     -2.091609
  H      -1.965890     -1.631939     -3.050920
  H      -2.607857     -2.229112     -1.787960
19
Coordinates from ORCA-job pb_aquo6 E -651.044552443020
  Pb      1.037599      0.498107     -0.414814
  O       2.898391      0.848828      1.400277
  H       3.627753      0.255220      1.186577
  H       2.578075      0.548450      2.259254
  O      -1.446190      0.614125     -0.682822
  H      -1.662876      1.412636     -1.179650
  H      -1.708622     -0.142356     -1.256159
  O       0.243762      2.455653      1.013066
  H       0.932498      3.132520      0.998143
  H      -0.515648      2.858552      0.572787
  O       0.628295     -1.963564     -1.036014
  H       0.554226     -2.467619     -0.216519
  H      -0.272813     -1.970456     -1.425789
  O       0.217503     -0.578590      1.613365
  H      -0.695293     -0.853655      1.453581
  H       0.163335      0.096382      2.303488
  O      -1.887731     -1.667623     -2.090315
  H      -1.966013     -1.631992     -3.050379
  H      -2.608432     -2.230958     -1.788488
19
Coordinates from ORCA-job pb_aquo6 E -651.044549700511
  Pb      1.036169      0.498946     -0.414636
  O       2.898572      0.845987      1.399538
  H       3.627901      0.251960      1.186419
  H       2.577539      0.545534      2.258133
  O      -1.448434      0.620507     -0.687540
  H      -1.663036      1.416259     -1.189243
  H      -1.709742     -0.138790     -1.256547
  O       0.244480      2.455983      1.015684
  H       0.930942      3.134710      0.996793
  H      -0.517593      2.857139      0.578683
  O       0.630478     -1.963220     -1.037095
  H       0.558258     -2.468275     -0.218649
  H      -0.271620     -1.970169     -1.425145
  O       0.216460     -0.578698      1.612741
  H      -0.696564     -0.853423      1.454112
  H       0.163074      0.095733      2.303607
  O      -1.886904     -1.668635     -2.086557
  H      -1.965807     -1.634003     -3.046490
  H      -2.606353     -2.233886     -1.784217
19
Coordinates from ORCA-job pb_aquo6 E -651.044544770011
  Pb      1.036013      0.500543     -0.416405
  O       2.897166      0.844735      1.400134
  H       3.626290      0.249943      1.187472
  H       2.574714      0.543259      2.257936
  O      -1.448684      0.625828     -0.691975
  H      -1.663184      1.418431     -1.198020
  H      -1.710262     -0.136775     -1.256127
  O       0.246467      2.455572      1.018816
  H       0.933053      3.134188      1.000807
  H      -0.516464      2.857514      0.585407
  O       0.633121     -1.961831     -1.040802
  H       0.565359     -2.467519     -0.222762
  H      -0.270366     -1.969293     -1.424322
  O       0.213486     -0.578483      1.608208
  H      -0.700539     -0.849454      1.449391
  H       0.161701      0.094789      2.300178
  O      -1.887946     -1.669875     -2.081045
  H      -1.967176     -1.640469     -3.041037
  H      -2.604928     -2.237444     -1.776261
19
Coordinates from ORCA-job pb_aquo6 E -651.044552882036
  Pb      1.034036      0.501821     -0.417226
  O       2.895740      0.844494      1.400516
  H       3.624777      0.250058      1.186452
  H       2.573072      0.540914      2.257580
  O      -1.448277      0.629387     -0.696204
  H      -1.660315      1.419062     -1.208187
  H      -1.711674     -0.135430     -1.255372
  O       0.249342      2.455408      1.022054
  H       0.933604      3.136101      0.999630
  H      -0.517219      2.855602      0.593155
  O       0.634397     -1.961281     -1.042643
  H       0.569882     -2.467735     -0.224784
  H      -0.270745     -1.969363     -1.423540
  O       0.212112     -0.578736      1.607159
  H      -0.702372     -0.849145      1.449241
  H       0.161818      0.093908      2.299829
  O      -1.889519     -1.668643     -2.077445
  H      -1.966481     -1.643649     -3.037948
  H      -2.604361     -2.239114     -1.772677
19
Coordinates from ORCA-job pb_aquo6 E -651.044549159895
  Pb      1.033990      0.503339     -0.418267
  O       2.894140      0.843986      1.401239
  H       3.623483      0.250238      1.186473
  H       2.571145      0.538856      2.257601
  O      -1.447193      0.633869     -0.700246
  H      -1.658021      1.421343     -1.215947
  H      -1.711129     -0.133703     -1.256110
  O       0.250987      2.454990      1.025110
  H       0.934659      3.136007      1.001374
  H      -0.517317      2.854240      0.598022
  O       0.636168     -1.959822     -1.045506
  H       0.574993     -2.466351     -0.227245
  H      -0.269966     -1.969462     -1.423375
  O       0.209404     -0.579655      1.604026
  H      -0.705449     -0.848273      1.445502
  H       0.160211      0.092008      2.297775
  O      -1.890231     -1.669197     -2.072841
  H      -1.969136     -1.648486     -3.033338
  H      -2.602920     -2.240267     -1.764658
19
Coordinates from ORCA-job pb_aquo6 E -651.044522994805
  Pb      1.034718      0.506182     -0.420859
  O       2.892199      0.842692      1.403138
  H       3.621902      0.249941      1.186970
  H       2.568073      0.533926      2.257720
  O      -1.445375      0.637566     -0.705089
  H      -1.655435      1.422264     -1.225431
  H      -1.711390     -0.133098     -1.256356
  O       0.252687      2.454006      1.028709
  H       0.935980      3.135519      1.003606
  H      -0.517243      2.853286      0.604802
  O       0.639128     -1.957187     -1.048854
  H       0.582857     -2.463107     -0.229560
  H      -0.268603     -1.968640     -1.422318
  O       0.206228     -0.579492      1.599008
  H      -0.709195     -0.845096      1.439018
  H       0.158507      0.090789      2.294248
  O      -1.892158     -1.670434     -2.066449
  H      -1.972115     -1.652889     -3.026873
  H      -2.602946     -2.242567     -1.755841
19
Coordinates from ORCA-job pb_aquo6 E -651.044555353284
  Pb      1.034264      0.508953     -0.422201
  O       2.890011      0.839582      1.404234
  H       3.620295      0.248592      1.185442
  H       2.565860      0.526300      2.257212
  O      -1.444697      0.641798     -0.709706
  H      -1.652915      1.423695     -1.234943
  H      -1.710555     -0.132328     -1.256039
  O       0.253775      2.454653      1.032385
  H       0.935789      3.137269      1.004664
  H      -0.518135      2.852144      0.610352
  O       0.642825     -1.954824     -1.051520
  H       0.590455     -2.460210     -0.231538
  H      -0.266194     -1.968387     -1.421624
  O       0.202873     -0.578861      1.594709
  H      -0.712793     -0.843324      1.433805
  H       0.155596      0.089967      2.291264
  O      -1.892391     -1.671427     -2.060174
  H      -1.974810     -1.656264     -3.020489
  H      -2.601435     -2.243666     -1.746242
19
Coordinates from ORCA-job pb_aquo6 E -651.044555395357
  Pb      1.034457      0.510451     -0.422916
  O       2.888478      0.838573      1.406040
  H       3.620554      0.251340      1.182848
  H       2.565614      0.518207      2.256834
  O      -1.443534      0.645272     -0.714651
  H      -1.651593      1.425035     -1.243043
  H      -1.710852     -0.130741     -1.257681
  O       0.254241      2.454414      1.035162
  H       0.935541      3.137670      1.005651
  H      -0.518830      2.851024      0.614435
  O       0.645091     -1.953653     -1.052500
  H       0.595183     -2.457948     -0.231612
  H      -0.264966     -1.968611     -1.420114
  O       0.200612     -0.578512      1.592115
  H      -0.714875     -0.843026      1.430901
  H       0.153369      0.088956      2.289901
  O      -1.892491     -1.672776     -2.055662
  H      -1.976481     -1.657672     -3.015774
  H      -2.601699     -2.244343     -1.740343
19
Coordinates from ORCA-job pb_aquo6 E -651.044568371291
  Pb      1.033951      0.511637     -0.422846
  O       2.887450      0.837285      1.407929
  H       3.622090      0.256737      1.176015
  H       2.568668      0.504884      2.255599
  O      -1.443374      0.646027     -0.717454
  H      -1.652326      1.424983     -1.246739
  H      -1.710131     -0.130864     -1.259436
  O       0.252694      2.454965      1.036701
  H       0.933965      3.138311      1.005626
  H      -0.520315      2.850961      0.615692
  O       0.646217     -1.953446     -1.049676
  H       0.595994     -2.455575     -0.227606
  H      -0.263771     -1.969559     -1.417253
  O       0.199719     -0.576858      1.592007
  H      -0.715418     -0.842718      1.431494
  H       0.152294      0.090076      2.290291
  O      -1.891541     -1.673799     -2.054877
  H      -1.974965     -1.656350     -3.014955
  H      -2.603382     -2.243037     -1.740920
19
Coordinates from ORCA-job pb_aquo6 E -651.044561326006
  Pb      1.033514      0.512106     -0.421677
  O       2.887625      0.836976      1.410236
  H       3.624131      0.263178      1.167782
  H       2.573514      0.490589      2.254113
  O      -1.442916      0.645912     -0.718901
  H      -1.652328      1.424784     -1.248084
  H      -1.708567     -0.130950     -1.261291
  O       0.249532      2.455399      1.037078
  H       0.931152      3.138477      1.006300
  H      -0.522535      2.851718      0.614782
  O       0.645987     -1.953500     -1.045676
  H       0.594578     -2.454935     -0.223553
  H      -0.263547     -1.970281     -1.414459
  O       0.199763     -0.574733      1.593587
  H      -0.715011     -0.842248      1.434328
  H       0.151866      0.092586      2.291549
  O      -1.890407     -1.675223     -2.056120
  H      -1.972702     -1.654963     -3.016196
  H      -2.605829     -2.241233     -1.744207
19
Coordinates from ORCA-job pb_aquo6 E -651.044563342662
  Pb      1.033312      0.512802     -0.419895
  O       2.887988      0.836209      1.413222
  H       3.626242      0.269003      1.160525
  H       2.578356      0.476221      2.253102
  O      -1.442346      0.645732     -0.719117
  H      -1.650797      1.424423     -1.248874
  H      -1.706946     -0.131158     -1.261842
  O       0.245947      2.456634      1.036159
  H       0.927958      3.139382      1.007428
  H      -0.524584      2.853441      0.611622
  O       0.645666     -1.952863     -1.043134
  H       0.593694     -2.455512     -0.222064
  H      -0.263604     -1.969381     -1.412631
  O       0.199560     -0.573006      1.595858
  H      -0.714976     -0.841648      1.437133
  H       0.151044      0.095098      2.293204
  O      -1.889771     -1.676516     -2.057269
  H      -1.971535     -1.654740     -3.017286
  H      -2.607390     -2.240462     -1.746551
19
Coordinates from ORCA-job pb_aquo6 E -651.044573430347
  Pb      1.033502      0.512968     -0.417837
  O       2.888337      0.835664      1.416759
  H       3.629603      0.276550      1.154753
  H       2.582908      0.462012      2.252273
  O      -1.441660      0.645823     -0.719178
  H      -1.647343      1.424154     -1.250538
  H      -1.705608     -0.131264     -1.262003
  O       0.242449      2.457384      1.034704
  H       0.924581      3.140065      1.009464
  H      -0.526676      2.854694      0.607856
  O       0.644890     -1.952037     -1.041767
  H       0.593287     -2.457007     -0.222221
  H      -0.264253     -1.967989     -1.411519
  O       0.199073     -0.571678      1.598250
  H      -0.715457     -0.840679      1.439558
  H       0.150051      0.097549      2.294566
  O      -1.889838     -1.677028     -2.058270
  H      -1.971841     -1.655902     -3.018289
  H      -2.608188     -2.239619     -1.746969
19
Coordinates from ORCA-job pb_aquo6 E -651.044565553861
  Pb      1.033907      0.513192     -0.415891
  O       2.887970      0.834234      1.420321
  H       3.634098      0.284333      1.152088
  H       2.585502      0.448606      2.251474
  O      -1.441321      0.646261     -0.718734
  H      -1.643440      1.423836     -1.252528
  H      -1.705363     -0.131374     -1.260970
  O       0.239896      2.458504      1.032302
  H       0.922154      3.141095      1.012042
  H      -0.527592      2.856532      0.602980
  O       0.644558     -1.950598     -1.042747
  H       0.594487     -2.458239     -0.224551
  H      -0.264822     -1.965826     -1.411719
  O       0.197716     -0.571370      1.600225
  H      -0.716843     -0.839911      1.440044
  H       0.147972      0.099040      2.295398
  O      -1.890320     -1.676645     -2.057949
  H      -1.973550     -1.658491     -3.017978
  H      -2.607189     -2.239520     -1.744215
19
Coordinates from ORCA-job pb_aquo6 E -651.044571146756
  Pb      1.034477      0.512856     -0.414844
  O       2.886289      0.832960      1.423083
  H       3.638688      0.294291      1.149892
  H       2.587266      0.435858      2.250262
  O      -1.441230      0.646827     -0.719276
  H      -1.641883      1.424212     -1.253994
  H      -1.705587     -0.130940     -1.261282
  O       0.238723      2.458854      1.030965
  H       0.921161      3.141353      1.013782
  H      -0.527698      2.857521      0.600303
  O       0.644214     -1.950412     -1.042997
  H       0.594872     -2.457952     -0.224457
  H      -0.265379     -1.965578     -1.411368
  O       0.196510     -0.571170      1.601016
  H      -0.717936     -0.839427      1.439570
  H       0.146056      0.099738      2.295526
  O      -1.890373     -1.676017     -2.057413
  H      -1.974267     -1.660133     -3.017465
  H      -2.606084     -2.239183     -1.741712
19
Coordinates from ORCA-job pb_aquo6 E -651.044578437372
  Pb      1.035220      0.512703     -0.414458
  O       2.884126      0.830676      1.425310
  H       3.643453      0.301630      1.151460
  H       2.587295      0.426506      2.249537
  O      -1.441550      0.647841     -0.719469
  H      -1.640733      1.425132     -1.254835
  H      -1.706747     -0.129887     -1.261072
  O       0.238162      2.459415      1.029327
  H       0.921185      3.141398      1.015971
  H      -0.526879      2.859601      0.597441
  O       0.644149     -1.949227     -1.045067
  H       0.596491     -2.456911     -0.226243
  H      -0.266032     -1.964887     -1.412284
  O       0.195261     -0.571795      1.600956
  H      -0.719114     -0.838723      1.437114
  H       0.144068      0.099730      2.294666
  O      -1.891121     -1.675198     -2.055702
  H      -1.975672     -1.663770     -3.015850
  H      -2.603743     -2.240574     -1.737212
19
Coordinates from ORCA-job pb_aquo6 E -651.044585390642
  Pb      1.034890      0.513346     -0.414359
  O       2.881662      0.829181      1.427698
  H       3.644880      0.309445      1.147998
  H       2.588930      0.414394      2.248535
  O      -1.441155      0.648542     -0.720766
  H      -1.641738      1.425651     -1.255873
  H      -1.706233     -0.129388     -1.261952
  O       0.237429      2.460796      1.029235
  H       0.921150      3.142150      1.015352
  H      -0.526603      2.861423      0.596399
  O       0.644660     -1.949267     -1.043900
  H       0.596903     -2.455584     -0.224377
  H      -0.265675     -1.965557     -1.410828
  O       0.194575     -0.571565      1.600493
  H      -0.719500     -0.839409      1.436882
  H       0.143017      0.099205      2.295074
  O      -1.890625     -1.675762     -2.054468
  H      -1.974672     -1.663088     -3.014527
  H      -2.604076     -2.240856     -1.737024
19
Coordinates from ORCA-job pb_aquo6 E -651.044577818971
  Pb      1.035390      0.513479     -0.414150
  O       2.879243      0.826881      1.430298
  H       3.648889      0.318698      1.146540
  H       2.590410      0.401382      2.246929
  O      -1.441120      0.650098     -0.721838
  H      -1.639903      1.426680     -1.258448
  H      -1.706457     -0.128431     -1.262044
  O       0.236404      2.461048      1.029175
  H       0.920343      3.142214      1.016577
  H      -0.526993      2.862075      0.595235
  O       0.644839     -1.948315     -1.043957
  H       0.598861     -2.455249     -0.224677
  H      -0.265985     -1.965307     -1.409995
  O       0.193177     -0.571002      1.600154
  H      -0.720830     -0.838551      1.435759
  H       0.141151      0.100321      2.293999
  O      -1.891125     -1.675634     -2.052787
  H      -1.975006     -1.665237     -3.012936
  H      -2.603468     -2.241491     -1.734242
19
Coordinates from ORCA-job pb_aquo6 E -651.044585166515
  Pb      1.036171      0.513084     -0.413823
  O       2.875904      0.826956      1.433979
  H       3.651811      0.330344      1.146863
  H       2.590844      0.391178      2.246432
  O      -1.440203      0.650873     -0.721883
  H      -1.638914      1.427447     -1.258583
  H      -1.706153     -0.127478     -1.261839
  O       0.235932      2.461826      1.027208
  H       0.921267      3.141644      1.017809
  H      -0.525074      2.864765      0.590973
  O       0.644215     -1.948274     -1.044857
  H       0.599358     -2.456313     -0.226300
  H      -0.266908     -1.965397     -1.410150
  O       0.192628     -0.572077      1.599732
  H      -0.721173     -0.839787      1.434216
  H       0.139668      0.098702      2.294111
  O      -1.892073     -1.675434     -2.051091
  H      -1.976166     -1.666142     -3.011180
  H      -2.603314     -2.242256     -1.732025
19
Coordinates from ORCA-job pb_aquo6 E -651.044582087375
  Pb      1.035629      0.513754     -0.413857
  O       2.876931      0.825824      1.433037
  H       3.651125      0.326684      1.145378
  H       2.591268      0.391064      2.245803
  O      -1.440723      0.650699     -0.722057
  H      -1.639673      1.427060     -1.258873
  H      -1.706253     -0.127989     -1.261896
  O       0.235651      2.461953      1.028142
  H       0.920464      3.142294      1.017238
  H      -0.526063      2.863869      0.592137
  O       0.645211     -1.947817     -1.044161
  H       0.600112     -2.455564     -0.225395
  H      -0.265829     -1.965163     -1.409573
  O       0.192160     -0.571041      1.600033
  H      -0.721612     -0.838806      1.434730
  H       0.139438      0.099955      2.294173
  O      -1.891380     -1.675615     -2.051263
  H      -1.975216     -1.665729     -3.011420
  H      -2.603422     -2.241774     -1.732585
19
Coordinates from ORCA-job pb_aquo6 E -651.044587564404
  Pb      1.035525      0.513265     -0.413971
  O       2.877743      0.827031      1.432095
  H       3.650009      0.324224      1.145659
  H       2.590989      0.395767      2.246254
  O      -1.440923      0.649868     -0.721344
  H      -1.640449      1.426888     -1.257106
  H      -1.706320     -0.128230     -1.262073
  O       0.236045      2.461436      1.028265
  H       0.920755      3.141873      1.016792
  H      -0.525947      2.863158      0.592492
  O       0.644614     -1.948528     -1.043596
  H       0.598463     -2.456134     -0.224862
  H      -0.266080     -1.965497     -1.409836
  O       0.192859     -0.571007      1.600329
  H      -0.721169     -0.838382      1.435780
  H       0.140853      0.099918      2.294547
  O      -1.891171     -1.675401     -2.052611
  H      -1.974688     -1.664831     -3.012755
  H      -2.603290     -2.241758     -1.734470
19
Coordinates from ORCA-job pb_aquo6 E -651.044582672446
  Pb      1.035490      0.513198     -0.414002
  O       2.877954      0.827208      1.431881
  H       3.649507      0.322848      1.146194
  H       2.590321      0.397274      2.246431
  O      -1.441055      0.649402     -0.720612
  H      -1.641280      1.426756     -1.255597
  H      -1.706421     -0.128391     -1.261791
  O       0.236199      2.461664      1.027849
  H       0.921017      3.141975      1.016436
  H      -0.525554      2.863454      0.591732
  O       0.644730     -1.948635     -1.043748
  H       0.598252     -2.456297     -0.225049
  H      -0.265844     -1.965451     -1.410282
  O       0.192956     -0.571157      1.600347
  H      -0.721217     -0.838115      1.435865
  H       0.141341      0.099608      2.294786
  O      -1.890977     -1.675304     -2.052910
  H      -1.974637     -1.664496     -3.013056
  H      -2.602962     -2.241881     -1.734885
19
Coordinates from ORCA-job pb_aquo6 E -651.044581971571
  Pb      1.035396      0.513170     -0.413916
  O       2.877628      0.826875      1.432189
  H       3.649743      0.323648      1.146037
  H       2.590145      0.395620      2.246135
  O      -1.441195      0.649032     -0.719949
  H      -1.642035      1.426706     -1.254229
  H      -1.706633     -0.128515     -1.261458
  O       0.236027      2.462107      1.027328
  H       0.921204      3.142052      1.016373
  H      -0.525082      2.864173      0.590302
  O       0.644906     -1.948635     -1.043745
  H       0.598094     -2.456324     -0.225077
  H      -0.265548     -1.965382     -1.410599
  O       0.192683     -0.571185      1.600489
  H      -0.721731     -0.837352      1.436022
  H       0.141713      0.099416      2.295147
  O      -1.890752     -1.675153     -2.053050
  H      -1.974351     -1.664362     -3.013213
  H      -2.602392     -2.242232     -1.735195
19
Coordinates from ORCA-job pb_aquo6 E -651.044578670923
  Pb      1.035378      0.512904     -0.413678
  O       2.876815      0.826550      1.432987
  H       3.650764      0.327128      1.145217
  H       2.590815      0.391639      2.245542
  O      -1.441239      0.648616     -0.719221
  H      -1.642852      1.426793     -1.252485
  H      -1.706873     -0.128594     -1.261125
  O       0.235429      2.462413      1.026569
  H       0.921264      3.141696      1.016768
  H      -0.524406      2.865117      0.587833
  O       0.644862     -1.948904     -1.043309
  H       0.597391     -2.456623     -0.224693
  H      -0.265359     -1.965456     -1.410798
  O       0.192213     -0.571246      1.600759
  H      -0.722658     -0.835956      1.436487
  H       0.142418      0.099146      2.295692
  O      -1.890578     -1.674864     -2.053345
  H      -1.973585     -1.664174     -3.013588
  H      -2.601982     -2.242526     -1.736022
19
Coordinates from ORCA-job pb_aquo6 E -651.044584586577
  Pb      1.035189      0.512774     -0.413468
  O       2.876929      0.826522      1.432946
  H       3.651143      0.327940      1.144427
  H       2.591739      0.390821      2.245356
  O      -1.441382      0.648440     -0.719294
  H      -1.642899      1.426744     -1.252429
  H      -1.707040     -0.128662     -1.261324
  O       0.235081      2.462301      1.026736
  H       0.921019      3.141491      1.016893
  H      -0.524582      2.864980      0.587653
  O       0.644519     -1.949085     -1.042757
  H       0.596448     -2.456513     -0.224014
  H      -0.265508     -1.965525     -1.410699
  O       0.192285     -0.571052      1.601220
  H      -0.722793     -0.835313      1.437349
  H       0.143112      0.099304      2.296205
  O      -1.890514     -1.674818     -2.053948
  H      -1.972949     -1.664055     -3.014221
  H      -2.601980     -2.242634     -1.737042
19
Coordinates from ORCA-job pb_aquo6 E -651.044594917561
  Pb      1.034977      0.512714     -0.413257
  O       2.877780      0.826777      1.432257
  H       3.650969      0.326558      1.143776
  H       2.592822      0.392710      2.245563
  O      -1.441471      0.648633     -0.720029
  H      -1.642217      1.426688     -1.253870
  H      -1.707105     -0.128695     -1.261740
  O       0.234833      2.461781      1.027649
  H       0.920382      3.141386      1.016764
  H      -0.525504      2.863852      0.589151
  O       0.644119     -1.949251     -1.042181
  H       0.595455     -2.456247     -0.223224
  H      -0.265726     -1.965568     -1.410533
  O       0.192614     -0.570832      1.601596
  H      -0.722609     -0.834948      1.438354
  H       0.143966      0.099454      2.296633
  O      -1.890551     -1.674918     -2.054555
  H      -1.972610     -1.663898     -3.014839
  H      -2.602305     -2.242537     -1.737924
19
Coordinates from ORCA-job pb_aquo6 E -651.044592004961
  Pb      1.035180      0.512665     -0.413305
  O       2.877640      0.826925      1.432448
  H       3.650990      0.326768      1.144309
  H       2.592350      0.392868      2.245662
  O      -1.441332      0.648715     -0.719939
  H      -1.642163      1.426723     -1.253771
  H      -1.706978     -0.128626     -1.261619
  O       0.234916      2.461772      1.027424
  H       0.920492      3.141350      1.016781
  H      -0.525315      2.863973      0.588916
  O       0.644225     -1.949248     -1.042495
  H       0.595751     -2.456386     -0.223588
  H      -0.265679     -1.965534     -1.410732
  O       0.192572     -0.571046      1.601325
  H      -0.722634     -0.835099      1.437900
  H       0.143842      0.099186      2.296447
  O      -1.890642     -1.674920     -2.054253
  H      -1.973041     -1.663971     -3.014537
  H      -2.602357     -2.242457     -1.737383
19
Coordinates from ORCA-job pb_aquo6 E -651.044589637654
  Pb      1.035648      0.512969     -0.413488
  O       2.877102      0.826694      1.433128
  H       3.650892      0.326750      1.145800
  H       2.590932      0.392464      2.245971
  O      -1.440833      0.649389     -0.720130
  H      -1.641527      1.426929     -1.254647
  H      -1.706705     -0.128327     -1.261169
  O       0.235050      2.461992      1.026999
  H       0.920673      3.141527      1.017055
  H      -0.525007      2.864464      0.588511
  O       0.644973     -1.948782     -1.043894
  H       0.597250     -2.456346     -0.225178
  H      -0.265237     -1.965067     -1.411439
  O       0.192107     -0.571613      1.600301
  H      -0.723093     -0.835216      1.436146
  H       0.143188      0.098284      2.295776
  O      -1.890885     -1.675099     -2.052696
  H      -1.974797     -1.664576     -3.012883
  H      -2.601910     -2.242779     -1.734571
19
Coordinates from ORCA-job pb_aquo6 E -651.044589527417
  Pb      1.035403      0.512844     -0.413428
  O       2.877463      0.826783      1.432680
  H       3.650812      0.326284      1.145134
  H       2.591580      0.393122      2.245908
  O      -1.441119      0.649096     -0.720119
  H      -1.641709      1.426790     -1.254474
  H      -1.706862     -0.128492     -1.261401
  O       0.234975      2.461827      1.027331
  H       0.920509      3.141448      1.016850
  H      -0.525286      2.864049      0.588943
  O       0.644640     -1.948972     -1.043256
  H       0.596382     -2.456252     -0.224413
  H      -0.265378     -1.965197     -1.411235
  O       0.192347     -0.571348      1.600780
  H      -0.722946     -0.834931      1.437096
  H       0.143816      0.098617      2.296193
  O      -1.890768     -1.675002     -2.053456
  H      -1.974004     -1.664320     -3.013681
  H      -2.602035     -2.242687     -1.735860
19
Coordinates from ORCA-job pb_aquo6 E -651.044589684867
  Pb      1.035223      0.512728     -0.413390
  O       2.877693      0.826847      1.432330
  H       3.650723      0.325898      1.144708
  H       2.591879      0.393577      2.245787
  O      -1.441341      0.648846     -0.719934
  H      -1.641988      1.426665     -1.254106
  H      -1.706966     -0.128635     -1.261436
  O       0.234920      2.461762      1.027423
  H       0.920430      3.141415      1.016695
  H      -0.525408      2.863889      0.589061
  O       0.644447     -1.949164     -1.042795
  H       0.595648     -2.456195     -0.223835
  H      -0.265408     -1.965271     -1.411185
  O       0.192526     -0.571207      1.601099
  H      -0.722839     -0.834723      1.437721
  H       0.144277      0.098809      2.296465
  O      -1.890608     -1.674918     -2.053958
  H      -1.973345     -1.663993     -3.014217
  H      -2.602045     -2.242670     -1.736841
