19
Coordinates from ORCA-job pb_aquo6 E -651.044589684867
  Pb          1.03522316106535      0.51272775694966     -0.41338957724869
  O           2.87769275482456      0.82684731183379      1.43232964957603
  H           3.65072340095775      0.32589807145207      1.14470794406983
  H           2.59187937355682      0.39357691927106      2.24578706594748
  O          -1.44134140430919      0.64884550063262     -0.71993380018150
  H          -1.64198777604204      1.42666481376338     -1.25410625724594
  H          -1.70696584872643     -0.12863543459795     -1.26143607479472
  O           0.23492000354708      2.46176187194571      1.02742340976633
  H           0.92043032549694      3.14141491013894      1.01669464063053
  H          -0.52540849258358      2.86388858788692      0.58906056228237
  O           0.64444725064665     -1.94916421344655     -1.04279487924340
  H           0.59564808023737     -2.45619450326980     -0.22383486875633
  H          -0.26540754799394     -1.96527147939752     -1.41118545031722
  O           0.19252604998196     -0.57120692390300      1.60109887350772
  H          -0.72283946887923     -0.83472270615704      1.43772145401717
  H           0.14427694255466      0.09880941115779      2.29646520208199
  O          -1.89060848426711     -1.67491797354697     -2.05395847928758
  H          -1.97334464735354     -1.66399265587257     -3.01421736615325
  H          -2.60204459271410     -2.24267003484052     -1.73684131865085
