19
E_Eh=-33.83911617 rel_kcal=0.000 rel_kJ_per_mol=0.00
Cu    -0.02639294     0.06099500    -0.06372806
O      1.90924663    -0.11449996     0.12804077
H      2.41255625     0.34567778    -0.55695679
H      2.12691258    -1.05543943     0.07093859
O     -1.96510439     0.21455688    -0.23420032
H     -2.43876808    -0.22360583     0.48620761
H     -2.19613850     1.15364696    -0.20635250
O      0.00784126     2.25161729     0.01412904
H      0.65316401     2.64680586     0.61227128
H      0.18128828     2.60866727    -0.86595008
O     -0.05961595    -2.12699665    -0.13575219
H     -0.68099262    -2.52414255    -0.75767829
H     -0.25926131    -2.49065583     0.73580134
O     -0.26160414    -0.15354228     2.13364134
H     -0.60260361     0.62558060     2.58828928
H      0.57739308    -0.37353526     2.55516294
O      0.18852659     0.35134957    -2.25342648
H     -0.66805672     0.49437493    -2.67278923
H      0.62252354    -0.35632091    -2.74390236
19
E_Eh=-33.83906987 rel_kcal=0.029 rel_kJ_per_mol=0.12
Cu    -0.03456215     0.08267061    -0.02886857
O      1.91150326     0.00455169     0.00246003
H      2.20245702     0.01519992     0.92494775
H      2.30359451     0.77262203    -0.43425407
O     -1.98039060     0.15962642    -0.04872820
H     -2.27719472     0.17143694    -0.96932427
H     -2.36785798    -0.61969148     0.37193783
O      0.09008545     2.27416266    -0.09079520
H     -0.76751020     2.69742438    -0.21858372
H      0.47366971     2.65890493     0.70645068
O     -0.15322585    -2.10650519     0.03252652
H      0.70672190    -2.52164185     0.17104122
H     -0.52990774    -2.50595465    -0.76111165
O      0.05970599     0.17878801     2.18784623
H     -0.59905159     0.75372814     2.59472927
H     -0.03461509    -0.68741148     2.60189861
O     -0.12927301     0.03343806    -2.24381095
H     -0.01983119     0.90624659    -2.63973247
H      0.51333994    -0.54666733    -2.66861728
19
E_Eh=-33.83902957 rel_kcal=0.054 rel_kJ_per_mol=0.23
Cu    -0.00678338    -0.01389469    -0.00967551
O      1.93684528    -0.10561915    -0.03373603
H      2.24423276    -0.89409553    -0.50084601
H      2.25260305    -0.16626819     0.87860968
O     -1.95040933     0.07740735     0.01561442
H     -2.25574142     0.86804393     0.48023154
H     -2.26582497     0.13618693    -0.89684946
O      0.04173653     2.20408948     0.20444744
H      0.93472928     2.54573132     0.32972791
H     -0.33868819     2.69463088    -0.53348429
O     -0.05752250    -2.22751334    -0.25121866
H     -0.95155741    -2.56578238    -0.37874513
H      0.32548829    -2.73123053     0.47650118
O      0.12749414    -0.09399593     2.17098500
H      0.08955601     0.79213972     2.55162145
H     -0.55393907    -0.61787295     2.60899098
O     -0.14393552     0.07899647    -2.19220981
H      0.53941301     0.60481037    -2.62480420
H     -0.10608005    -0.80492809    -2.57837792
19
E_Eh=-33.83899035 rel_kcal=0.079 rel_kJ_per_mol=0.33
Cu     0.00377887    -0.02041874    -0.00619691
O      1.94885022    -0.03553730     0.07107286
H      2.29329381    -0.06582221    -0.83227755
H      2.27145703    -0.82249172     0.53059576
O     -1.94111071    -0.00613819    -0.08161046
H     -2.28353423     0.03446663     0.82209650
H     -2.26514387     0.77537307    -0.54936320
O     -0.04126770     2.18617842    -0.18564246
H     -0.44101112     2.62783366     0.57302896
H      0.83331889     2.57586638    -0.30213809
O      0.04585468    -2.22648014     0.18228516
H      0.44303077    -2.67395056    -0.57426443
H     -0.82945592    -2.61320343     0.30251161
O     -0.19777462     0.09224512     2.18281189
H      0.45038660     0.64783172     2.63243129
H     -0.13312471    -0.78600966     2.57734661
O      0.20771513    -0.12664974    -2.19395788
H     -0.42991008    -0.69070494    -2.64806903
H      0.13336049     0.75127067    -2.58751136
19
E_Eh=-33.83894191 rel_kcal=0.109 rel_kJ_per_mol=0.46
Cu    -0.08728106    -0.00715337     0.00092256
O      1.85480112    -0.13946219     0.08117867
H      2.25130592     0.59289619     0.57199888
H      2.18994715    -0.09668988    -0.82537366
O     -2.02846636     0.16309510    -0.05474274
H     -2.46941766    -0.53097570    -0.56268737
H     -2.35220443     0.11299532     0.85571477
O      0.10465741     2.17194692     0.25461177
H      0.53822195     2.61814386    -0.48272262
H     -0.75117601     2.60114097     0.37336860
O     -0.24592475    -2.17384046    -0.33574715
H     -0.76872470    -2.65974612     0.31285776
H      0.61764472    -2.60232707    -0.37398491
O     -0.35046878    -0.16569744     2.19171651
H     -0.14762679     0.67744757     2.61446552
H      0.15206225    -0.84333626     2.65931254
O      0.19845891     0.16589206    -2.19228084
H      0.08971836    -0.69436863    -2.61557343
H     -0.37389137     0.78361682    -2.66202019
19
E_Eh=-33.83822677 rel_kcal=0.558 rel_kJ_per_mol=2.34
Cu     0.10515373     0.07352652    -0.08204521
O      2.04899774    -0.02077031    -0.04148489
H      2.30089470    -0.94892724     0.06659049
H      2.48622544     0.49580327     0.64752154
O     -1.83397264     0.20599563    -0.21657104
H     -2.23365963    -0.44231425    -0.81010983
H     -2.21391485     0.09021890     0.66581604
O      0.16074505     2.24644416     0.17983415
H      0.76707240     2.74459453    -0.38121692
H     -0.71748227     2.62904698     0.06299095
O      0.22655888    -2.14119492    -0.09368096
H      0.13887705    -2.46895582    -0.99714458
H     -0.36186412    -2.66308953     0.46353963
O     -0.28210360     0.04642408     2.10238121
H      0.16666872    -0.59303408     2.66683627
H     -0.15136630     0.92019841     2.49038356
O      0.18596025    -0.19269957    -2.26795290
H     -0.35866886     0.40776887    -2.79011206
H      1.08922574    -0.12255520    -2.59928211
19
E_Eh=-33.83821254 rel_kcal=0.567 rel_kJ_per_mol=2.37
Cu     0.01083755     0.06910680     0.04424785
O      1.96050317     0.04183420     0.10418203
H      2.41366617     0.64600556    -0.49839304
H      2.25669969    -0.85986892    -0.08361922
O     -1.93527767     0.18702723     0.08858927
H     -2.26362722     0.03565120    -0.80889016
H     -2.38036663    -0.42866040     0.68523941
O      0.08398889     2.23578380    -0.26832364
H     -0.79579148     2.63284565    -0.26410338
H      0.62153610     2.73208688     0.36036986
O      0.22336881    -2.14153718    -0.07771441
H     -0.36692733    -2.62708391    -0.66502435
H      0.15764683    -2.54591140     0.79576098
O      0.00870434    -0.24550492     2.21052812
H      0.90342037    -0.22750559     2.57193033
H     -0.52011811     0.37464114     2.72642230
O     -0.29810232    -0.04160755    -2.15598440
H     -0.15736601     0.81745223    -2.57083158
H      0.19979690    -0.69295730    -2.66317408
19
E_Eh=-33.83815344 rel_kcal=0.604 rel_kJ_per_mol=2.53
Cu     0.01500363     0.06636915    -0.06341312
O      1.95613676    -0.00110799    -0.20815984
H      2.25946454    -0.90777948    -0.05964605
H      2.43400452     0.58630218     0.39172568
O     -1.92730953     0.24123320     0.00511417
H     -2.41280115    -0.37122658    -0.56227154
H     -2.21367440     0.10546433     0.91957497
O      0.12467065     2.22133371     0.25579521
H      0.60631143     2.72834628    -0.40893678
H     -0.76075618     2.60041132     0.31646682
O      0.11897074    -2.14044338    -0.01745375
H     -0.04704991    -2.49683029    -0.89857321
H     -0.43887313    -2.62518272     0.60171567
O     -0.15841214    -0.04565740     2.15805757
H      0.34872650    -0.71388315     2.63290762
H      0.03836717     0.80755044     2.56216804
O     -0.09613043    -0.22592760    -2.24277317
H     -0.62558384     0.41329879    -2.73313193
H      0.77893477    -0.24227079    -2.64916636
19
E_Eh=-33.83789261 rel_kcal=0.768 rel_kJ_per_mol=3.21
Cu     0.02239686    -0.06999792    -0.04116978
O      1.97023991    -0.25480330     0.02153448
H      2.47251038     0.10005000    -0.72311897
H      2.17292436    -1.19888161     0.09091256
O     -1.93002794    -0.07720647     0.03196331
H     -2.26750405     0.78688018     0.30237079
H     -2.27771572    -0.25676496    -0.85341010
O      0.02343360     2.11975463    -0.08003979
H     -0.17187442     2.37991772     0.83001037
H      0.85690776     2.54840839    -0.30871390
O      0.04534719    -2.22629965    -0.18850233
H     -0.26467696    -2.55572126    -1.04148222
H     -0.47257777    -2.67275867     0.49267843
O      0.08193640     0.40709021     2.13624472
H     -0.52905431    -0.07119619     2.70742623
H      0.96507862     0.31366911     2.51197071
O     -0.32067260     0.11023865    -2.25703082
H     -0.47015314     1.03208167    -2.49769823
H      0.27083616    -0.26255043    -2.91982275
19
E_Eh=-33.83780587 rel_kcal=0.822 rel_kJ_per_mol=3.44
Cu     0.11685379     0.07903568     0.04316650
O      2.06654951     0.05516518    -0.08587521
H      2.54124368    -0.33115944     0.66115345
H      2.37029333     0.96844407    -0.18792273
O     -1.82276329     0.29213184     0.07752267
H     -2.27097097    -0.51195039    -0.21447091
H     -2.09097249     0.45557693     0.99298861
O      0.33900565     2.22389114     0.14934731
H     -0.16582018     2.69781652    -0.52322568
H      0.07799329     2.58767210     1.00481027
O     -0.05780226    -2.09392098     0.10811202
H      0.76876609    -2.57019741     0.25255292
H     -0.37370112    -2.36288706    -0.76455605
O     -0.11941578    -0.02914786     2.28507862
H     -0.32877333    -0.92610592     2.57102904
H      0.54254665     0.31311767     2.89544035
O     -0.00341021    -0.38809054    -2.13617907
H     -0.62250405     0.13003089    -2.66211999
H      0.84991577    -0.36265050    -2.58432638
19
E_Eh=-33.83771412 rel_kcal=0.880 rel_kJ_per_mol=3.68
Cu    -0.04728978     0.06073502     0.00018629
O      1.88290449     0.28012465    -0.07757591
H      2.15792645     0.26768619    -1.00513236
H      2.36395859    -0.41386759     0.38996080
O     -1.98732531     0.06882629     0.20866769
H     -2.27801527     0.98060065     0.35508787
H     -2.48118332    -0.27902148    -0.54492380
O     -0.23624011     2.22664728    -0.12753246
H      0.34739370     2.69451023     0.48237721
H     -0.03902747     2.55950623    -1.01213718
O     -0.00047347    -2.13929167    -0.30659976
H     -0.85887208    -2.56155664    -0.18681323
H      0.60127939    -2.57375399     0.30928747
O      0.15820001    -0.53081755     2.10903806
H      0.62547171     0.09047120     2.67946619
H     -0.69221901    -0.71535517     2.52616369
O      0.11136627    -0.04250582    -2.23396774
H      0.23321108    -0.96940098    -2.47447012
H     -0.56650345     0.31462857    -2.81804190
19
E_Eh=-33.83769456 rel_kcal=0.892 rel_kJ_per_mol=3.73
Cu     0.05187980     0.12757172    -0.11698954
O      2.00492494     0.19563262    -0.07496452
H      2.37015739    -0.04355169    -0.93796392
H      2.34809353    -0.44210570     0.56569179
O     -1.89689241     0.05057113    -0.20904892
H     -2.18399051    -0.28936264     0.65060714
H     -2.31630081     0.91453227    -0.31834066
O      0.09195499     2.27954468     0.19853121
H      1.00131383     2.56850462     0.34676185
H     -0.29153471     2.87880248    -0.45287713
O      0.32736879    -2.05031533     0.04349720
H      0.55995436    -2.42345226    -0.81570413
H     -0.43713438    -2.54044756     0.36618225
O     -0.37064280     0.05065060     2.07972263
H      0.14771713    -0.55458596     2.62088301
H     -0.31823529     0.92306922     2.48765855
O      0.13575831    -0.30395528    -2.29191581
H     -0.70079199    -0.67067106    -2.60310434
H      0.36784080     0.40992128    -2.89735405
19
E_Eh=-33.83709837 rel_kcal=1.266 rel_kJ_per_mol=5.30
Cu    -0.08132356    -0.01598845    -0.06470683
O      1.86348067    -0.08022206    -0.11159352
H      2.15862229    -0.14962995     0.80832732
H      2.17656712     0.77273363    -0.44412873
O     -2.03197206    -0.05613856    -0.04589789
H     -2.39356079    -0.77497427     0.48867336
H     -2.48937054     0.76020686     0.19108008
O      0.20753193     2.13546764    -0.32650442
H      0.01942480     2.35126683    -1.24895692
H     -0.20024525     2.81041718     0.22704149
O     -0.10781009    -2.20312307     0.12935737
H      0.78692892    -2.55746851     0.06167105
H     -0.64672269    -2.67246543    -0.51809874
O      0.21666588    -0.15709224     2.13619440
H     -0.12721251     0.47591206     2.77624576
H      0.01164792    -1.04319085     2.45725468
O     -0.19247155     0.15067726    -2.28044600
H      0.49572361    -0.28923987    -2.79177468
H     -1.04446900    -0.09488806    -2.65859025
19
E_Eh=-33.83703558 rel_kcal=1.306 rel_kJ_per_mol=5.46
Cu     0.08990461    -0.01160831     0.00309781
O      2.02841488    -0.12377418    -0.15438731
H      2.42502427    -0.76945057     0.44409949
H      2.52544529     0.70142360    -0.08766803
O     -1.85181451     0.01564251     0.13075435
H     -2.07109571    -0.07083072     1.07004310
H     -2.14230197     0.89671909    -0.14471094
O     -0.12758485     2.18135972    -0.11496096
H      0.28856140     2.80633608     0.48847084
H      0.02621934     2.48601024    -1.01736715
O      0.03911787    -2.21794692     0.19450036
H      0.57217056    -2.71578694    -0.43596603
H     -0.86415891    -2.54847618     0.12611921
O      0.01010086    -0.17788701     2.20284003
H      0.15774826    -1.09080002     2.47872910
H      0.50304851     0.39685638     2.79866536
O     -0.02823940     0.20872610    -2.17949782
H      0.73305418    -0.11846842    -2.67288206
H     -0.82325774    -0.15577733    -2.58481068
19
E_Eh=-33.83684407 rel_kcal=1.426 rel_kJ_per_mol=5.97
Cu     0.05066268     0.04161098    -0.05756206
O      2.00616314     0.00649257    -0.07027121
H      2.34628422     0.74025346     0.45972558
H      2.33118046     0.14311495    -0.97032141
O     -1.90197809     0.05077789    -0.11634456
H     -2.21454792    -0.39409557     0.68362906
H     -2.29791081     0.93232551    -0.12107721
O      0.36262125     2.23809768    -0.12557929
H      0.40750635     2.57123487    -1.02961763
H     -0.17642818     2.85236750     0.38426166
O      0.09920213    -2.14700578     0.22473881
H      0.97999366    -2.53145357     0.14741373
H     -0.50927220    -2.69607360    -0.28253821
O     -0.23314069     0.01895661     2.12017925
H      0.00026300    -0.84918623     2.47217525
H      0.21497071     0.68057236     2.65925488
O      0.06843148     0.07632480    -2.25589738
H      0.44626281    -0.69622403    -2.69290360
H     -0.82223688     0.18408301    -2.61079329
19
E_Eh=-33.83570941 rel_kcal=2.138 rel_kJ_per_mol=8.94
Cu    -0.07281452     0.03708852     0.05402263
O      1.86681918     0.29628376     0.07430966
H      2.25630131     0.09337489    -0.78725950
H      2.31716656    -0.21561151     0.75833559
O     -2.01993519     0.11961302    -0.14970460
H     -2.49419526    -0.72158929    -0.14357635
H     -2.45518886     0.72414715     0.46580673
O     -0.16397084     2.20615062     0.55024377
H     -0.58626735     2.75794994    -0.11804035
H      0.73333398     2.54357673     0.66049207
O     -0.06876810    -2.24418367     0.00741036
H     -0.79591968    -2.74573691     0.38967769
H      0.73996488    -2.65582552     0.32748724
O      0.05168253    -0.21461825     2.20760637
H      0.13829110     0.65412988     2.61842585
H     -0.63117257    -0.69351340     2.69170133
O      0.16727823    -0.33179042    -2.04236374
H      0.04694581    -1.27882141    -2.19933952
H     -0.43957731     0.14157776    -2.62483541
