33
E_Eh=-65.06541924 rel_kcal=0.000 rel_kJ_per_mol=0.00
Cu    -4.79320100     0.08404824    -0.59007577
C      4.01617194    -0.51341254    -0.02707262
O      2.68423212    -0.00894297    -0.08913445
C      1.69883502    -0.85685009     0.22027635
O      1.90851439    -2.01404498     0.54916188
C      0.36360106    -0.25507042     0.12611271
C     -0.74333981    -1.05486370     0.43821508
C     -2.01576540    -0.54061519     0.37207240
O     -3.13426185    -1.26681350     0.63205410
C     -2.23022246     0.81091494    -0.02447631
O     -3.40142943     1.34656116    -0.08086254
C     -1.08282522     1.59629032    -0.35599976
O     -1.28243947     2.87939902    -0.71612472
C      0.18942247     1.07106353    -0.26969332
H      4.21109415    -0.94115940     0.95762403
H      4.66274984     0.33749887    -0.21748971
H      4.15844251    -1.28762837    -0.78263303
H     -0.55932375    -2.07865718     0.72787759
H     -2.90716478    -2.19964414     0.77432640
H     -2.24748994     3.03986060    -0.71689390
H      1.03781068     1.68626236    -0.51769823
O     -6.22834974    -1.38158410    -0.88639343
H     -6.61416613    -1.60764355    -0.03154156
H     -6.92625684    -0.95939660    -1.40453198
O     -6.40570552     1.45197938    -1.27565295
H     -6.10539851     2.27066129    -1.68408919
H     -6.93339045     1.69798516    -0.50652044
O     -5.60835167     0.24709084     1.48080985
H     -5.33086683     1.11031393     1.80909723
H     -5.12970142    -0.40675013     2.00359946
O     -3.80835173    -0.69674791    -2.31809467
H     -4.15194293    -1.58482643    -2.48514910
H     -3.94400837    -0.18565071    -3.12607600
33
E_Eh=-65.06507711 rel_kcal=0.215 rel_kJ_per_mol=0.90
Cu    -4.79773675     0.21346333    -0.78973999
C      3.94739854    -0.60880966     0.54388787
O      2.64794618    -0.07704880     0.29687458
C      1.60685028    -0.86264205     0.58723880
O      1.74155050    -1.98680356     1.04478606
C      0.30961707    -0.23687780     0.30577564
C     -0.85002777    -0.97073582     0.58702246
C     -2.09131005    -0.43001538     0.35356388
O     -3.25320337    -1.09460033     0.58263208
C     -2.21968887     0.88331672    -0.18420068
O     -3.35767419     1.44994877    -0.38649655
C     -1.01746127     1.59900487    -0.48241233
O     -1.13530388     2.84732695    -0.97499538
C      0.22129238     1.04862669    -0.22869732
H      4.06868293    -0.82450758     1.60661801
H      4.64530206     0.15737930     0.22117168
H      4.08928167    -1.53117487    -0.02149174
H     -0.73032467    -1.96553443     0.98929936
H     -3.06834269    -2.00384918     0.86775670
H     -2.08923642     3.03675254    -1.08101948
H      1.11077721     1.61330557    -0.45183244
O     -6.45341895    -1.03755793    -0.75597143
H     -6.24630740    -1.94511088    -0.50464766
H     -7.00372517    -0.67242099    -0.04996547
O     -5.75956376     1.26146957    -2.48588660
H     -5.86936960     2.21088892    -2.36828206
H     -6.63685998     0.88355234    -2.62480111
O     -5.68001834     0.74079827     1.20421290
H     -5.65184896     1.69774362     1.31495416
H     -5.11287584     0.36196331     1.88577428
O     -3.79383814    -0.84548585    -2.39197984
H     -4.30563379    -1.59243169    -2.72898896
H     -3.72518300    -0.21488481    -3.11960891
33
E_Eh=-65.06500199 rel_kcal=0.262 rel_kJ_per_mol=1.10
Cu    -4.82091981     0.34684626    -0.53962198
C      3.97662480    -0.76851035    -0.06144945
O      2.67309816    -0.19207273    -0.09603737
C      1.64105805    -1.01975853     0.09068505
O      1.78765845    -2.21704855     0.28157799
C      0.33797457    -0.34586610     0.05076486
C     -0.80901825    -1.12370886     0.25408318
C     -2.05473320    -0.54481935     0.24563898
O     -3.20614063    -1.24683576     0.40768490
C     -2.20209963     0.85585751     0.02937153
O     -3.34241008     1.45292872     0.05798413
C     -1.01445559     1.61912445    -0.20301854
O     -1.14829833     2.94529437    -0.39730526
C      0.23046251     1.02554174    -0.18069329
H      4.13751347    -1.27565248     0.89127469
H      4.66830243     0.05906226    -0.18365664
H      4.08786215    -1.49320334    -0.86950988
H     -0.67567099    -2.18276777     0.41658771
H     -3.01060062    -2.19607106     0.46151210
H     -2.10343118     3.15534854    -0.37151230
H      1.10960976     1.62474563    -0.34755521
O     -6.42990208    -0.95533629    -0.75564083
H     -6.17141309    -1.88243714    -0.81340429
H     -6.92571628    -0.85362435     0.06785802
O     -5.94830571     1.76473553    -1.81316384
H     -6.06648474     2.65239265    -1.45802008
H     -6.82697904     1.39565320    -1.96646971
O     -5.57909289     0.29954100     1.56152806
H     -5.55365235     1.18740532     1.93440824
H     -4.97010160    -0.24069868     2.07868828
O     -3.93692598    -0.21990730    -2.42910931
H     -4.44697527    -0.89940449    -2.88929806
H     -3.98030918     0.57117423    -2.98048377
33
E_Eh=-65.06484142 rel_kcal=0.363 rel_kJ_per_mol=1.52
Cu    -4.70488302     0.10707743    -1.06107540
C      3.89378175    -0.55925402     1.31581150
O      2.60079075    -0.05536712     0.98869381
C      1.63951745    -0.95429432     0.76093388
O      1.83642344    -2.15742270     0.82666954
C      0.34297158    -0.34850826     0.43308199
C     -0.73687640    -1.20260260     0.17929668
C     -1.97202792    -0.68496601    -0.13228350
O     -3.04495816    -1.44635031    -0.47221063
C     -2.18249412     0.72221721    -0.16597895
O     -3.34218710     1.25650964    -0.34174312
C     -1.05240402     1.56921889     0.06014593
O     -1.24412648     2.90280419     0.02647641
C      0.18257814     1.03614643     0.36296461
H      3.83584584    -1.19938356     2.19754181
H      4.50982329     0.31358492     1.50804963
H      4.29080263    -1.14158910     0.48286043
H     -0.56219653    -2.26663096     0.22976263
H     -2.88543958    -2.38660202    -0.29227276
H     -2.18298944     3.06654793    -0.19261796
H      1.01498685     1.69453549     0.54565778
O     -6.07499465    -1.38981425    -1.21418878
H     -6.41056395    -1.55045789    -0.32283979
H     -6.80828128    -1.02080967    -1.72286147
O     -5.93696655     1.49817368    -2.24085730
H     -5.76609244     1.22944308    -3.15275220
H     -5.64620855     2.41357688    -2.16491589
O     -6.00086485     0.56640920     0.77020907
H     -6.61455582     1.27724209     0.54968244
H     -5.45667993     0.87746781     1.50086265
O     -4.05315398    -0.44726844    -3.12378302
H     -3.10561757    -0.39563259    -3.28500435
H     -4.32439109    -1.35908397    -3.28755835
33
E_Eh=-65.06481722 rel_kcal=0.378 rel_kJ_per_mol=1.58
Cu    -4.83779008     0.13585858    -0.45868691
C      4.03973121    -0.48135312     0.06166115
O      2.70277815     0.01310781     0.04154637
C      1.72135917    -0.89155892     0.10192144
O      1.93807770    -2.09133209     0.17153258
C      0.37985899    -0.29696358     0.07995611
C     -0.72270260    -1.15711347     0.16350712
C     -2.00060896    -0.65137841     0.15559977
O     -3.11830514    -1.42572516     0.18169680
C     -2.22673580     0.75218248     0.07317952
O     -3.40255299     1.28009763     0.12938639
C     -1.08341858     1.60192401    -0.04400996
O     -1.29073584     2.93121300    -0.11920503
C      0.19413137     1.08127884    -0.02870382
H      4.20930292    -1.06950613     0.96499639
H      4.67857764     0.39602057     0.04299137
H      4.21901308    -1.11359360    -0.80937409
H     -0.53155949    -2.21749771     0.23202317
H     -2.89293520    -2.36892175     0.22047668
H     -2.25703784     3.08220800    -0.11871514
H      1.03912082     1.74450905    -0.10471668
O     -6.34603606    -1.20788219    -0.77045083
H     -6.61785961    -1.52473757     0.10071030
H     -7.07261578    -0.67264472    -1.11576398
O     -6.18278468     1.61016596    -1.40194617
H     -5.84701583     1.77108825    -2.29212127
H     -6.24880596     2.46276693    -0.95802659
O     -5.50642950    -0.13240391     1.66683176
H     -4.79446916    -0.53500399     2.17599824
H     -5.70419494     0.71774642     2.07590823
O     -4.24362788    -0.27209082    -2.52697457
H     -3.31200328    -0.46274081    -2.67543348
H     -4.74994631    -1.03848463    -2.82731460
33
E_Eh=-65.06474872 rel_kcal=0.421 rel_kJ_per_mol=1.76
Cu    -4.76684522     0.25202729    -0.49985199
C      4.09013403    -0.60208400     0.16252239
O      2.76966212    -0.06949006     0.09008596
C      1.76073080    -0.94340956     0.14939626
O      1.94020212    -2.14634254     0.25914872
C      0.43821247    -0.31152728     0.07668215
C     -0.69030794    -1.13601212     0.17062877
C     -1.95262375    -0.59434267     0.12698716
O     -3.09247181    -1.33529413     0.16261761
C     -2.13612373     0.81171287    -0.00397425
O     -3.29547881     1.37722408     0.02704226
C     -0.96691229     1.62238249    -0.14203514
O     -1.13405863     2.95280348    -0.27589697
C      0.29462222     1.06626231    -0.08742075
H      4.22366887    -1.14831302     1.09765889
H      4.75615702     0.25363744     0.11368694
H      4.26642046    -1.28288808    -0.67171667
H     -0.53109163    -2.19835769     0.27822544
H     -2.89529896    -2.28327478     0.22915235
H     -2.09530175     3.13141874    -0.30220226
H      1.15969995     1.70146145    -0.17614665
O     -6.28507881    -1.08925744    -0.74067447
H     -6.53221080    -1.38231979     0.14605722
H     -7.01872494    -0.55798968    -1.07731062
O     -6.13339739     1.71243679    -1.43656250
H     -5.84856157     1.80247787    -2.35405279
H     -6.13972287     2.59418554    -1.04873395
O     -5.41017013     0.05634847     1.64741892
H     -5.63629354     0.91285550     2.02704553
H     -4.67914118    -0.30039825     2.16328092
O     -4.22787462    -0.18223155    -2.57999306
H     -3.29290655    -0.32718492    -2.75578266
H     -4.70468867    -0.97772948    -2.85080195
33
E_Eh=-65.06468949 rel_kcal=0.458 rel_kJ_per_mol=1.92
Cu    -4.75288113     0.11876735    -0.64903158
C      4.09114873    -0.52072619     0.32822677
O      2.76044335    -0.01894587     0.22846754
C      1.77538489    -0.92070152     0.19048574
O      1.98442155    -2.12285798     0.23747296
C      0.43940112    -0.32080688     0.09402875
C     -0.66586557    -1.18049766     0.06261268
C     -1.93997709    -0.67097074    -0.01570679
O     -3.05539154    -1.44123962    -0.11451879
C     -2.16019052     0.73523466    -0.04505318
O     -3.33693246     1.26397212    -0.02708682
C     -1.01149469     1.58616591    -0.05466541
O     -1.21210957     2.91829784    -0.09095097
C      0.26177674     1.06128090     0.02643028
H      4.20740151    -1.09546065     1.24844849
H      4.73592755     0.35246481     0.33159086
H      4.31290547    -1.16786841    -0.52185232
H     -0.47979467    -2.24330152     0.09779444
H     -2.84261834    -2.38523790    -0.04373779
H     -2.17567544     3.07417487    -0.15057098
H      1.11020315     1.72447060     0.03469564
O     -6.16002136    -1.32702947    -0.96013048
H     -6.37147565    -1.68807321    -0.08952036
H     -6.94373152    -0.85231970    -1.26570227
O     -6.16599479     1.58958803    -1.47019972
H     -5.93173628     1.66658239    -2.40372705
H     -6.10352187     2.47157572    -1.08737718
O     -5.52474192    -0.12019465     1.47059493
H     -6.00456022     0.66153189     1.76740727
H     -4.78664542    -0.24599499     2.07541395
O     -4.25191028    -0.14808990    -2.78643412
H     -3.31955524    -0.18436306    -3.02291399
H     -4.65706088    -0.97725362    -3.07143276
33
E_Eh=-65.06431428 rel_kcal=0.693 rel_kJ_per_mol=2.90
Cu    -4.80972298     0.17437975    -0.90383868
C      3.92549116    -0.52421343     0.76774120
O      2.62645256    -0.01352025     0.47799205
C      1.59547000    -0.84456402     0.65573465
O      1.73815019    -1.99273322     1.04593255
C      0.29725777    -0.23612496     0.34189963
C     -0.85332347    -1.01713411     0.50826033
C     -2.09637036    -0.49296304     0.24460544
O     -3.25026979    -1.19969907     0.36635940
C     -2.23455989     0.84921106    -0.21206097
O     -3.37768083     1.39972376    -0.44534787
C     -1.04062996     1.61504131    -0.39224093
O     -1.16658767     2.89222624    -0.80435355
C      0.19867419     1.08063351    -0.10765369
H      3.98647357    -0.82162251     1.81583174
H      4.61512522     0.28609268     0.55305647
H      4.13558693    -1.39316113     0.14216534
H     -0.72705511    -2.03374545     0.84892259
H     -3.06159092    -2.12826785     0.57494918
H     -2.11834536     3.06912842    -0.94280706
H      1.08102249     1.68360597    -0.24042069
O     -6.43829920    -1.08201447    -0.96088422
H     -6.17829495    -2.00062564    -1.09417299
H     -6.86209571    -1.01604078    -0.09510865
O     -5.83454285     1.30156435    -2.50780510
H     -5.76501969     2.26096352    -2.46023209
H     -6.77208538     1.07459826    -2.47611203
O     -5.63140659     0.48451669     1.16291190
H     -5.72548524     1.42563170     1.35040898
H     -4.99317489     0.13053020     1.79289134
O     -3.93459055    -0.87087652    -2.59512424
H     -4.60004425    -0.85748341    -3.29664214
H     -3.16095303    -0.41669468    -2.94552461
33
E_Eh=-65.06413930 rel_kcal=0.803 rel_kJ_per_mol=3.36
Cu    -4.83190492     0.11736370    -0.54736496
C      4.07369337    -0.41566826     0.02538180
O      2.73116368     0.06121608    -0.02238858
C      1.75987682    -0.85318262     0.05389124
O      1.98983883    -2.04805741     0.15631577
C      0.41201908    -0.27398792     0.01096179
C     -0.68184538    -1.14136055     0.12473585
C     -1.96506922    -0.64846981     0.11719606
O     -3.07293071    -1.43255315     0.19459397
C     -2.20404815     0.74996402    -0.00981566
O     -3.38460277     1.26919438     0.02655592
C     -1.06932040     1.60611800    -0.16212703
O     -1.29100894     2.92973029    -0.28392906
C      0.21321754     1.09887128    -0.13689900
H      4.24429637    -0.96446664     0.95299046
H      4.70199740     0.46810485    -0.02462593
H      4.26630352    -1.08043209    -0.81812185
H     -0.48016257    -2.19757799     0.22160244
H     -2.83131715    -2.37211196     0.17192766
H     -2.25901724     3.07010561    -0.28588033
H      1.05151629     1.76733814    -0.23691821
O     -6.46477965    -1.10505755    -0.81242259
H     -6.24439925    -1.86823274    -1.35929768
H     -6.74107251    -1.42062198     0.05767766
O     -6.04892032     1.58576960    -1.67178148
H     -6.13194833     2.45475503    -1.26474160
H     -6.93299165     1.19884713    -1.71185373
O     -5.38766963    -0.21780887     1.58431676
H     -5.48610014     0.61957204     2.05169581
H     -4.66504437    -0.69770727     2.00525815
O     -4.17024475    -0.43601483    -2.53589661
H     -4.68580602     0.12515735    -3.13135286
H     -3.24116135    -0.26272357    -2.71824140
33
E_Eh=-65.06393855 rel_kcal=0.929 rel_kJ_per_mol=3.89
Cu    -4.74331177     0.16800350    -0.84496944
C      4.01202349    -0.58461940     0.79498436
O      2.70612109    -0.06599890     0.55323681
C      1.71041267    -0.95138099     0.45848193
O      1.88907365    -2.15433311     0.56629490
C      0.40083485    -0.33064061     0.22459325
C     -0.71718765    -1.16901348     0.13164806
C     -1.96817915    -0.63687534    -0.07037048
O     -3.09085882    -1.38250935    -0.23400180
C     -2.15200650     0.77195908    -0.16222613
O     -3.31384655     1.32476203    -0.24849076
C     -0.98703380     1.59927581    -0.10865889
O     -1.15394900     2.93330458    -0.20321214
C      0.26233147     1.05158536     0.09426396
H      4.01912868    -1.16883078     1.71652237
H      4.66171285     0.28099467     0.87791741
H      4.31996116    -1.22671744    -0.03163350
H     -0.55925235    -2.23320862     0.21952473
H     -2.91871206    -2.32655049    -0.09223211
H     -2.10750611     3.10735409    -0.33295185
H      1.12261460     1.69692777     0.15089259
O     -5.99468478    -1.43611031    -1.03936022
H     -6.88877512    -1.10527715    -1.19061138
H     -5.72671796    -1.90058144    -1.84236218
O     -6.22662912     1.70248626    -1.52395646
H     -5.82590452     2.57832682    -1.54817897
H     -6.85651587     1.71506452    -0.79220853
O     -5.86237209     0.53485466     1.08878678
H     -5.30661419     1.04726249     1.68557657
H     -6.04391939    -0.31168881     1.51287070
O     -4.41446705    -0.07859757    -3.00162869
H     -5.06982696     0.47781497    -3.44374906
H     -3.54885281     0.17329915    -3.33959196
33
E_Eh=-65.06183742 rel_kcal=2.248 rel_kJ_per_mol=9.40
Cu    -4.79434017     0.23976325    -0.67705528
C      4.00854464    -0.57684316     0.64504562
O      2.71104062    -0.04432553     0.38997309
C      1.69322472    -0.91082774     0.37109988
O      1.84812404    -2.10726446     0.56139675
C      0.39685302    -0.27868099     0.10641806
C     -0.74069295    -1.09259137     0.07386853
C     -1.98172329    -0.55014116    -0.16752890
O     -3.10743650    -1.29935922    -0.30344003
C     -2.13613900     0.85125362    -0.35753671
O     -3.27840328     1.43119675    -0.49575987
C     -0.95011912     1.65198871    -0.35883230
O     -1.08720783     2.98302706    -0.53916757
C      0.28644856     1.09476402    -0.12009745
H      4.02544245    -1.07666807     1.61482746
H      4.68290201     0.27368989     0.63387127
H      4.27673704    -1.29858031    -0.12811864
H     -0.60776574    -2.15158108     0.23596592
H     -2.95767500    -2.21099611    -0.00680376
H     -2.03715314     3.16694926    -0.67571523
H      1.15980067     1.72483946    -0.10861082
O     -6.41278481    -1.01405112    -0.55908047
H     -7.10176084    -0.64169227    -1.12365791
H     -6.14420415    -1.84696478    -0.96515969
O     -6.09948722     1.79143859    -1.60198003
H     -5.56288573     2.55869410    -1.82808954
H     -6.78777959     2.10383818    -1.00267972
O     -4.93173536     0.15755576     1.56114503
H     -5.72564229    -0.32679773     1.82114015
H     -4.94447290     1.01077514     2.00812261
O     -4.69113999    -0.52517379    -2.75921609
H     -5.15994860     0.08026787    -3.34749604
H     -3.79910805    -0.63426518    -3.10285009
33
E_Eh=-65.06177224 rel_kcal=2.289 rel_kJ_per_mol=9.58
Cu    -4.80732402     0.24420944    -0.67281456
C      2.90814934    -2.86805716     0.85179520
O      1.66616282    -2.22630379     0.57213257
C      1.70006079    -0.90652339     0.34777276
O      2.74018533    -0.26838173     0.37291396
C      0.37704359    -0.33372336     0.08091090
C     -0.76857550    -1.13609461     0.05544616
C     -2.00158959    -0.57528776    -0.18924784
O     -3.13577901    -1.31165264    -0.32167361
C     -2.14179678     0.82717070    -0.38538292
O     -3.27856526     1.41893240    -0.51954071
C     -0.94738197     1.61429375    -0.39853724
O     -1.06971510     2.94571300    -0.58881566
C      0.27993703     1.03906293    -0.15858596
H      3.59304608    -2.74466036     0.01152445
H      2.66897354    -3.91506772     1.00931626
H      3.36463769    -2.43253876     1.74197296
H     -0.66424684    -2.19602509     0.22210519
H     -2.99706014    -2.22499398    -0.02386471
H     -2.01885257     3.13839259    -0.72155378
H      1.17074092     1.64665151    -0.15041066
O     -6.43662711    -0.98992833    -0.53732022
H     -7.13967662    -0.58864091    -1.06369019
H     -6.18885202    -1.80782663    -0.98519699
O     -6.14168051     1.80102973    -1.55051768
H     -5.61153748     2.54008679    -1.86643877
H     -6.75323481     2.16163503    -0.89820985
O     -4.89767636     0.13469342     1.56849624
H     -5.68447034    -0.35701931     1.83617438
H     -4.90404265     0.97970519     2.03031225
O     -4.73551741    -0.50955596    -2.75943738
H     -5.23035388     0.08572125    -3.33638540
H     -3.85041923    -0.60215217    -3.12552281
