32
E_Eh=-64.87665156 rel_kcal=0.000 rel_kJ_per_mol=0.00
Cu    -4.55640175     0.34023851    -0.87235294
C      3.95773740    -0.91513674     0.80737969
O      2.70524445    -0.25871304     0.62084477
C      1.66796268    -1.02751947     0.24872264
O      1.79785465    -2.23253487     0.07342821
C      0.42141785    -0.28922385     0.08639328
C     -0.71714215    -0.98960758    -0.30169949
C     -1.93293097    -0.33081615    -0.50628745
O     -2.98187944    -0.90928147    -0.99550871
C     -2.00639628     1.07425650    -0.19170980
O     -3.14316470     1.68898310    -0.19640395
C     -0.81996710     1.76605579     0.16499628
O     -0.91163647     3.10903082     0.40327524
C      0.36993247     1.09819141     0.31003550
H      3.88755176    -1.62546845     1.63276766
H      4.66884824    -0.12591088     1.03026761
H      4.23710882    -1.45447624    -0.09915415
H     -0.64367020    -2.05053295    -0.49035731
H     -1.84710647     3.35176675     0.26517788
H      1.25503880     1.63627219     0.60601857
O     -5.79184260    -1.48170751    -0.80154279
H     -5.10325918    -2.13949171    -0.65134755
H     -6.26895956    -1.36965643     0.03046018
O     -5.91303553     1.95453535    -1.35785323
H     -6.21282649     1.69574580    -2.23880438
H     -5.35495071     2.73278253    -1.46400295
O     -5.63616833     0.57790628     1.16706873
H     -5.00616458     1.04275882     1.72751395
H     -6.30313832     1.22576465     0.90333352
O     -4.95291095    -0.00685221    -3.14326609
H     -5.54561018    -0.76505475    -3.05922084
H     -4.11476559    -0.34724057    -3.47209365
32
E_Eh=-64.87659107 rel_kcal=0.038 rel_kJ_per_mol=0.16
Cu    -4.63516601     0.25223744    -0.99623450
C      3.86624531    -0.75535943     0.90303701
O      2.60596904    -0.13261149     0.66156670
C      1.59577887    -0.93544495     0.28676901
O      1.75534151    -2.14257659     0.15654731
C      0.33887073    -0.23014500     0.06724567
C     -0.77751033    -0.96882573    -0.31390708
C     -2.00254294    -0.34451100    -0.56699264
O     -3.03144275    -0.96507684    -1.04663526
C     -2.10938459     1.07089503    -0.31310916
O     -3.25735522     1.66157805    -0.36274335
C     -0.94408631     1.80055003     0.03846684
O     -1.06864172     3.14935650     0.22195378
C      0.25555266     1.16390144     0.23339479
H      3.77792345    -1.47412487     1.71933826
H      4.54344325     0.05190682     1.16371239
H      4.20305834    -1.27941551     0.00710545
H     -0.67974981    -2.03497216    -0.45655738
H     -2.00772449     3.36424850     0.06295498
H      1.12360005     1.73150084     0.52465456
O     -5.83667039    -1.58814538    -0.82738848
H     -5.14026650    -2.21984565    -0.61505384
H     -6.33963935    -1.42968690    -0.01835630
O     -6.00194111     1.82170217    -1.59260474
H     -6.27849524     1.50451860    -2.46205147
H     -5.45553862     2.60256148    -1.73451606
O     -5.75164150     0.58455571     1.00837887
H     -5.13175525     1.06907209     1.56316754
H     -6.40644919     1.22411264     0.69854074
O     -5.01984584    -0.23981520    -3.24181949
H     -5.60168008    -0.99980487    -3.11061385
H     -4.17387054    -0.58864010    -3.54046688
32
E_Eh=-64.87651933 rel_kcal=0.083 rel_kJ_per_mol=0.35
Cu    -4.53225995     0.32648010    -1.11389139
C      3.81642393    -0.79765717     1.31805405
O      2.59370356    -0.15499423     0.96249603
C      1.57484516    -0.95246028     0.59984096
O      1.69612351    -2.17086001     0.57677076
C      0.35755739    -0.22756221     0.25628141
C     -0.76588176    -0.96037855    -0.11572661
C     -1.95250012    -0.32134175    -0.48624316
O     -2.98049560    -0.94874162    -0.95967750
C     -2.01768958     1.11377437    -0.36721659
O     -3.13880101     1.73543268    -0.53185769
C     -0.84530883     1.83347065    -0.01947833
O     -0.92888550     3.19673053     0.03735840
C      0.31838039     1.17766809     0.29471792
H      3.65581769    -1.46291466     2.16803237
H      4.50259840     0.00410337     1.57205631
H      4.18925677    -1.38433818     0.47688929
H     -0.70125042    -2.03768039    -0.15789761
H     -1.85104325     3.42556259    -0.18761107
H      1.19146338     1.74006063     0.58098216
O     -5.82040027    -1.43265297    -0.83747446
H     -5.16775160    -2.06953499    -0.52496387
H     -6.35246096    -1.16703340    -0.07646249
O     -5.80339296     1.82968747    -1.97637882
H     -6.06487721     1.40097144    -2.80161043
H     -5.22614943     2.56527677    -2.20954801
O     -5.73202490     0.88622148     0.80153940
H     -5.11474805     1.37061130     1.35920203
H     -6.34261826     1.53726742     0.43209631
O     -4.77068136    -0.40896329    -3.32888520
H     -3.91309183    -0.80579963    -3.51172230
H     -5.38101454    -1.13850119    -3.16034646
32
E_Eh=-64.87607665 rel_kcal=0.361 rel_kJ_per_mol=1.51
Cu    -4.61842048     0.22805069    -1.01549296
C      3.87847365    -0.70934312     1.00665626
O      2.61341173    -0.09820823     0.76013416
C      1.60637765    -0.91357975     0.40524793
O      1.77124625    -2.12237353     0.30030648
C      0.34597959    -0.21891697     0.16982071
C     -0.76254758    -0.96937992    -0.20960303
C     -1.98686775    -0.35488275    -0.49110925
O     -3.00726366    -0.98953832    -0.96745931
C     -2.10203399     1.06694020    -0.27312821
O     -3.24808841     1.65303091    -0.37074062
C     -0.94601410     1.80555010     0.09307463
O     -1.07857739     3.15562803     0.25845353
C      0.25300245     1.17704674     0.31562019
H      3.79528421    -1.42460229     1.82653771
H      4.54885026     0.10486162     1.26331805
H      4.22044393    -1.23528541     0.11376051
H     -0.65891086    -2.03747983    -0.33185774
H     -2.01758500     3.36403544     0.09164570
H      1.11402742     1.75265516     0.61197135
O     -5.74666952    -1.60178993    -0.54276423
H     -6.12369650    -1.77307770    -1.41658220
H     -4.99173232    -2.19532485    -0.45388626
O     -5.77025916     1.80429152    -1.91852828
H     -5.22358879     2.58717538    -1.78679644
H     -6.48556657     1.85672490    -1.27007388
O     -6.00379509     0.89568524     0.74353296
H     -6.42121274     0.05218174     0.95757492
H     -5.45478843     1.15007460     1.49156416
O     -5.09118003    -0.67186181    -3.12622335
H     -5.45955771     0.07848939    -3.60811440
H     -4.24062163    -0.89016494    -3.51952676
32
E_Eh=-64.87571175 rel_kcal=0.590 rel_kJ_per_mol=2.47
Cu    -4.53365815     0.42481141    -1.01629355
C      3.84363346    -0.98370113     1.14116406
O      2.61343202    -0.31060012     0.88025488
C      1.57498380    -1.07488279     0.50186364
O      1.68534714    -2.28949737     0.39018508
C      0.35262946    -0.32098141     0.25183867
C     -0.78453005    -1.02065111    -0.14383334
C     -1.97504404    -0.35079498    -0.43619729
O     -3.01958733    -0.93304291    -0.93245235
C     -2.02898851     1.07001056    -0.20501709
O     -3.15308092     1.70564625    -0.28586580
C     -0.84562212     1.75880836     0.16436335
O     -0.92321047     3.11419460     0.32170625
C      0.32334184     1.07730275     0.39587971
H      3.70995378    -1.71022530     1.94432060
H      4.54456846    -0.20624485     1.42826699
H      4.18079236    -1.50739694     0.24508347
H     -0.72624521    -2.09184666    -0.26908283
H     -1.84829170     3.36137113     0.12785985
H      1.20768027     1.61340063     0.69761058
O     -5.89964792    -1.25994403    -0.97868354
H     -5.27214289    -1.97774376    -0.83443800
H     -6.35092384    -1.10657293    -0.13797892
O     -6.01098855     1.80284409    -1.75613961
H     -6.67610598     1.22639077    -2.15359773
H     -5.57855493     2.26653148    -2.48235305
O     -5.72671053     0.83048389     0.97161003
H     -5.07062339     1.18274632     1.58127791
H     -6.25900652     1.58042907     0.67554430
O     -4.41820987     0.09040799    -3.33799495
H     -4.96528391    -0.69462271    -3.46617812
H     -3.50709273    -0.18795662    -3.47322976
32
E_Eh=-64.87359559 rel_kcal=1.918 rel_kJ_per_mol=8.02
Cu    -4.62686070     0.37237106    -0.84125659
C      3.88820515    -0.97074426     0.68968945
O      2.64115649    -0.30752927     0.49159151
C      1.57327653    -1.08684909     0.24912832
O      1.67336076    -2.30670742     0.19941189
C      0.33457562    -0.34180946     0.06437540
C     -0.83486541    -1.05514708    -0.18700288
C     -2.04703779    -0.39706014    -0.41049717
O     -3.13112189    -1.00539391    -0.77163681
C     -2.07849087     1.03539244    -0.25707892
O     -3.20157052     1.67512171    -0.26779408
C     -0.86427369     1.73592201    -0.03674606
O     -0.92509572     3.09879353     0.04681025
C      0.32012559     1.06266211     0.12814697
H      3.82630896    -1.63239776     1.55533241
H      4.61456407    -0.18052089     0.85159658
H      4.14074042    -1.56440431    -0.19042925
H     -0.78806752    -2.13218543    -0.25600567
H     -1.86263660     3.34044696    -0.08340617
H      1.22867391     1.61011382     0.31625065
O     -5.85920201    -1.33213437    -0.28729547
H     -6.51635730    -1.51666920    -0.96986647
H     -5.18727262    -2.02322387    -0.32581863
O     -6.16305352     1.64733323    -1.55210225
H     -5.72185173     2.47746720    -1.76437724
H     -6.62374398     1.78360057    -0.71148942
O     -5.76125399     1.12742575     1.14429280
H     -6.03268500     0.29837668     1.55459987
H     -5.06252087     1.51085833     1.68264047
O     -4.22352736     0.29452373    -3.14073791
H     -5.05060805     0.25654277    -3.63822644
H     -3.75009224    -0.52955767    -3.29588202
32
E_Eh=-64.87338762 rel_kcal=2.048 rel_kJ_per_mol=8.57
Cu    -4.64479139     0.37958902    -0.84075495
C      2.68726699    -3.17158661     0.31458643
O      1.48252130    -2.42823235     0.13892873
C      1.57690056    -1.09062234     0.23869769
O      2.64886275    -0.54418291     0.46735239
C      0.30754222    -0.39913016     0.05354593
C     -0.86879249    -1.09961327    -0.19918236
C     -2.07166512    -0.42090581    -0.41534569
O     -3.16308971    -1.01515644    -0.77773909
C     -2.08858280     1.01142025    -0.25374521
O     -3.20539176     1.66181379    -0.25965782
C     -0.86728125     1.69789097    -0.03058314
O     -0.91229725     3.06098818     0.06227493
C      0.30623538     1.00530444     0.12663252
H      3.42175384    -2.87807648    -0.43730952
H      2.40393750    -4.21326354     0.20090359
H      3.10333293    -2.98180166     1.30540739
H     -0.85048599    -2.17527084    -0.27887959
H     -1.84766835     3.31350482    -0.06486735
H      1.23052146     1.52753201     0.31779553
O     -5.89323727    -1.31202748    -0.28791827
H     -6.55261686    -1.48604985    -0.97104828
H     -5.22897953    -2.01045867    -0.32969648
O     -6.17318776     1.66494967    -1.55198910
H     -5.72654273     2.49168199    -1.76585479
H     -6.63247765     1.80599293    -0.71140397
O     -5.77233784     1.14730960     1.14401156
H     -6.05011328     0.32217746     1.55807769
H     -5.06848662     1.52637634     1.67866159
O     -4.24003219     0.30953750    -3.14061030
H     -5.06832803     0.28037628    -3.63653798
H     -3.77249656    -0.51666280    -3.30243467
32
E_Eh=-64.87330517 rel_kcal=2.100 rel_kJ_per_mol=8.79
Cu    -4.24343246     0.43181174    -1.76913104
C      2.93511409    -0.70518992     3.05125425
O      1.95475049    -0.06950355     2.23335933
C      0.98547637    -0.85395215     1.73052672
O      0.95430687    -2.05613788     1.96436654
C      0.01814145    -0.13707980     0.91107066
C     -1.03352179    -0.85459792     0.34744425
C     -1.97524754    -0.22885148    -0.47277387
O     -2.88585965    -0.87569070    -1.12943305
C     -1.89386547     1.20142902    -0.63729360
O     -2.81818032     1.84757579    -1.26643337
C     -0.78987557     1.89740344    -0.07905967
O     -0.71382240     3.24526614    -0.29903166
C      0.14290010     1.24620651     0.68726835
H      2.46474579    -1.12028885     3.94413191
H      3.64632251     0.07308098     3.30959351
H      3.41710497    -1.51338952     2.49864698
H     -1.09421854    -1.91953660     0.51794582
H     -1.50241789     3.48134087    -0.82457141
H      0.95924283     1.79732017     1.12384567
O     -5.61967887    -1.34859825    -1.82059967
H     -5.77475539    -1.56975166    -2.74715951
H     -4.99617961    -1.99540301    -1.47212428
O     -5.41901462     1.78975847    -2.91402478
H     -5.47800880     1.39405739    -3.79278784
H     -4.89746155     2.59675183    -2.99121834
O     -5.67248042     0.89576144    -0.09338455
H     -6.20859663     1.62870138    -0.42285969
H     -6.23926215     0.11277729    -0.11302318
O     -3.63574228    -0.28623576    -3.95998456
H     -3.16394486    -1.08670666    -3.70594688
H     -2.97053930     0.32237196    -4.29895962
32
E_Eh=-64.87322838 rel_kcal=2.148 rel_kJ_per_mol=8.99
Cu    -4.64159111     0.45391847    -0.82261646
C      3.74692096    -0.99208229     1.10372661
O      2.54460059    -0.29892745     0.77511306
C      1.45136872    -1.05222542     0.56154734
O      1.49363202    -2.27357731     0.64823500
C      0.26349791    -0.27898939     0.22673596
C     -0.92341614    -0.96287529    -0.02344856
C     -2.08398555    -0.28051863    -0.39547563
O     -3.16727163    -0.88046506    -0.77789357
C     -2.05268844     1.16054967    -0.41159665
O     -3.13026171     1.84227113    -0.61936856
C     -0.82141641     1.82617667    -0.17700363
O     -0.81512408     3.19234655    -0.24600249
C      0.31285218     1.12426285     0.14334219
H      3.61398583    -1.55470594     2.02923566
H      4.50355846    -0.22229400     1.21836365
H      4.00893842    -1.68668398     0.30386846
H     -0.92897490    -2.04178417     0.02833640
H     -1.73377366     3.46229211    -0.43845340
H      1.23255911     1.64989276     0.33964742
O     -5.98386932    -1.32336934    -0.61713308
H     -6.46839358    -1.43132087    -1.44461761
H     -5.29834550    -2.00023218    -0.59234336
O     -6.10953740     1.88530772    -1.40107978
H     -6.38804445     1.61297626    -2.28491539
H     -5.63432220     2.71917135    -1.49040105
O     -5.46026276     0.72390325     1.26891388
H     -6.11176960     1.43287737     1.19066042
H     -5.96100105    -0.09500705     1.38218006
O     -4.73332535     0.06528198    -3.18130564
H     -4.30456202    -0.79436119    -3.24937058
H     -4.13067666     0.69820914    -3.58649394
32
E_Eh=-64.87259273 rel_kcal=2.547 rel_kJ_per_mol=10.66
Cu    -4.64925665     0.50452310    -0.90002234
C      3.74541672    -1.00949802     0.96445593
O      2.55825092    -0.31260942     0.59179440
C      1.40675486    -1.00527040     0.64829109
O      1.38652287    -2.17699551     1.00568543
C      0.23876991    -0.23191385     0.25045814
C     -1.00549142    -0.85584261     0.25976330
C     -2.16761048    -0.15706228    -0.08000649
O     -3.35457675    -0.65591968     0.04759802
C     -2.03451152     1.20210917    -0.54548300
O     -3.05242461     1.84332598    -1.01201343
C     -0.75577787     1.81864560    -0.50963381
O     -0.66863053     3.12385964    -0.91069162
C      0.35965232     1.11734405    -0.12938625
H      3.65699449    -1.38000315     1.98715239
H      4.54727522    -0.28292742     0.87805225
H      3.90759963    -1.85656802     0.29571770
H     -1.07484402    -1.88681602     0.57484285
H     -1.57171040     3.39098805    -1.16785187
H      1.32404558     1.59761875    -0.13426401
O     -5.93261774    -1.24171182    -1.25863430
H     -5.32021940    -1.91378622    -0.93864934
H     -6.57463234    -1.10369286    -0.54803499
O     -5.94806166     2.19157976    -1.11514199
H     -6.55799389     2.08097270    -1.85504396
H     -5.34958009     2.91748578    -1.32434371
O     -5.99065701     0.35101792     1.06150976
H     -5.34940097     0.13726773     1.74586619
H     -6.30454987     1.24923506     1.21773927
O     -4.26108048     0.06341785    -3.12346907
H     -4.33784138     0.79602355    -3.74540552
H     -4.93528557    -0.58871262    -3.35406544
32
E_Eh=-64.87229895 rel_kcal=2.731 rel_kJ_per_mol=11.43
Cu    -4.62796920     0.41033375    -0.79302261
C      3.84866762    -1.01090346     0.81073503
O      2.63214734    -0.32614683     0.51903532
C      1.53294951    -1.08501081     0.36602906
O      1.58157809    -2.30447378     0.47185544
C      0.32824907    -0.31940441     0.07467088
C     -0.87061137    -1.00972561    -0.08920816
C     -2.05113023    -0.33545634    -0.40752144
O     -3.16300806    -0.94059438    -0.69306702
C     -2.02122796     1.10348320    -0.45936738
O     -3.11459984     1.78034065    -0.60301237
C     -0.78014189     1.77574729    -0.31587788
O     -0.78197142     3.13936210    -0.41739692
C      0.37231620     1.08077573    -0.04654792
H      3.73412316    -1.60832730     1.71678220
H      4.59462025    -0.23377557     0.94445519
H      4.11328380    -1.67212315    -0.01609002
H     -0.87159853    -2.08692572    -0.01031191
H     -1.71167016     3.40366309    -0.55989806
H      1.30170612     1.61020579     0.08168552
O     -5.92804144    -1.29722689    -0.26250483
H     -6.53072901    -1.45050935    -1.00029135
H     -5.27199631    -2.00396716    -0.26258153
O     -6.25020366     1.49423608    -1.54598961
H     -6.07708946     1.56674086    -2.49407102
H     -6.17451577     2.37350541    -1.15814400
O     -5.47527896     1.04135748     1.26206085
H     -6.24644533     0.46289879     1.33133268
H     -4.87753167     0.80179788     1.97653353
O     -4.30637636     0.36230052    -3.19055940
H     -4.06100812    -0.54816391    -3.38629787
H     -3.51909394     0.89918200    -3.32287297
32
E_Eh=-64.87218372 rel_kcal=2.804 rel_kJ_per_mol=11.73
Cu    -4.60880978     0.39199729    -0.75436814
C      3.90959639    -0.97647814     0.68804390
O      2.67473619    -0.30341183     0.45181772
C      1.59091013    -1.07567573     0.26134630
O      1.66793768    -2.29784729     0.28389885
C      0.36646573    -0.31908716     0.03396556
C     -0.82097599    -1.02242197    -0.15591222
C     -2.02053150    -0.35358458    -0.41011866
O     -3.12682834    -0.95907017    -0.71356564
C     -2.01713573     1.08600884    -0.36952025
O     -3.12586626     1.74933107    -0.44728131
C     -0.78789183     1.77378454    -0.20175375
O     -0.81993105     3.14051624    -0.21313380
C      0.38227684     1.08660554     0.00350835
H      3.82501712    -1.61477627     1.56916826
H      4.64330908    -0.19133664     0.84149108
H      4.16954090    -1.59569942    -0.17206771
H     -0.79943454    -2.10225370    -0.14587261
H     -1.75685003     3.39223823    -0.32989303
H      1.30346105     1.62515579     0.15140378
O     -5.92657168    -1.25619872    -0.19420037
H     -6.60690003    -1.28790305    -0.87832294
H     -5.35034892    -2.02109096    -0.30555271
O     -6.27969240     1.41860178    -1.50342492
H     -6.04288072     1.71334916    -2.39161387
H     -6.35650815     2.19250218    -0.93325015
O     -5.51499093     1.14606738     1.27316952
H     -6.10821985     0.41923619     1.50261133
H     -4.82828866     1.18247326     1.94516493
O     -4.25404881     0.39049385    -3.13422871
H     -4.13875736    -0.53318089    -3.38269087
H     -3.40095319     0.81873861    -3.24884579
