34
E_Eh=-65.23012349 rel_kcal=0.000 rel_kJ_per_mol=0.00
Cu    -4.95984201    -0.10630518    -0.72820660
C      3.45343274    -1.51452282     1.17665735
O      2.41780902    -0.72309318     0.60119045
C      1.18961439    -0.88410727     1.08453454
O      0.91756799    -1.66205633     1.98058693
C      0.18804750    -0.02495172     0.41451988
C     -1.13660661    -0.11358221     0.83803533
C     -2.10908375     0.67495472     0.25111624
O     -3.40698379     0.64761579     0.62877370
C     -1.75857136     1.57079104    -0.79196256
O     -2.62328745     2.34315956    -1.41393681
C     -0.39847295     1.64573382    -1.21236449
O     -0.06238591     2.48520577    -2.19715066
C      0.55672675     0.84966977    -0.60893661
H      3.55527551    -1.28726673     2.23886930
H      4.36026312    -1.25619643     0.63875361
H      3.22299058    -2.57495825     1.06352256
H     -1.36956803    -0.80233748     1.63511740
H     -3.52420976     0.10906356     1.43216367
H     -3.56858828     2.25363610    -1.09117938
H     -0.84579010     2.98015681    -2.50676377
H      1.58092442     0.91567535    -0.93350227
O     -6.55150072    -0.47534905    -1.96812155
H     -6.56023221    -1.29290817    -2.47881505
H     -7.44239610    -0.33331127    -1.62718227
O     -5.23812109     2.04357734    -0.91834068
H     -5.62321291     2.49619068    -0.15684548
H     -5.71688684     2.33233963    -1.70687029
O     -5.42859652    -1.22838558     0.98455145
H     -5.41173799    -2.19203684     0.93748110
H     -6.20832066    -0.97547848     1.49332321
O     -3.42910342    -0.59279305    -2.07227977
H     -3.55211176    -0.21781493    -2.95359483
H     -3.20101849    -1.52280888    -2.18619742
34
E_Eh=-65.22808590 rel_kcal=1.279 rel_kJ_per_mol=5.35
Cu    -5.06789909    -0.25702430    -1.00969113
C      2.22176281    -3.03719298     1.31457647
O      1.10748141    -2.18922177     1.04984739
C      1.36269851    -0.97990268     0.55531782
O      2.48682644    -0.57735173     0.31974468
C      0.13583457    -0.18488594     0.32795436
C     -1.12438676    -0.70162015     0.62828731
C     -2.24702402     0.07924997     0.43351226
O     -3.50222829    -0.35531901     0.70162468
C     -2.12717558     1.39669458    -0.07535610
O     -3.17566648     2.17069453    -0.28711926
C     -0.83581242     1.89634968    -0.40531614
O     -0.79454627     3.13651046    -0.90495052
C      0.27603480     1.10191895    -0.19094785
H      2.79472146    -3.20418951     0.40129711
H      1.80551453    -3.96769115     1.68760611
H      2.87641773    -2.57952767     2.05778076
H     -1.19859313    -1.70437983     1.01472546
H     -3.46826682    -1.23307981     1.11904221
H     -4.00943927     1.82934670     0.13256836
H      0.10963847     3.43400068    -1.08801653
H      1.26975213     1.45900888    -0.41295261
O     -6.89548509    -1.25628705    -0.84643968
H     -7.48353222    -1.31378185    -1.60846653
H     -6.96546817    -2.08089697    -0.35200033
O     -4.64742509     1.14778422    -2.54174909
H     -4.17236737     1.92952135    -2.22629618
H     -5.32906532     1.44463142    -3.15559408
O     -5.68443003     1.23166857     0.31670557
H     -6.42369112     1.78496367     0.03003649
H     -5.90088875     0.89381922     1.19584078
O     -3.80255848    -1.53197037    -1.93904839
H     -3.44298842    -1.09578821    -2.72221296
H     -4.11335243    -2.40581482    -2.20898662
34
E_Eh=-65.22792376 rel_kcal=1.380 rel_kJ_per_mol=5.78
Cu    -5.01254366    -0.26102747    -0.96327361
C      3.75460646    -1.07970550     0.56148436
O      2.55423395    -0.33170963     0.38792301
C      1.40567255    -0.96719303     0.59763956
O      1.33497137    -2.13817002     0.92243798
C      0.22210515    -0.10055655     0.39786946
C     -1.03912318    -0.65610717     0.62710433
C     -2.17636584     0.11265951     0.47794916
O     -3.42521774    -0.36945760     0.70279293
C     -2.06290220     1.46396921     0.07970866
O     -3.10894282     2.25600498    -0.12097319
C     -0.77220696     2.01661405    -0.15185460
O     -0.65254828     3.29462888    -0.51688510
C      0.35703038     1.22798392     0.00856909
H      3.82473275    -1.44620038     1.58674852
H      4.56725728    -0.39478888     0.34048201
H      3.76860798    -1.93212393    -0.11923569
H     -1.08713333    -1.69155509     0.92619390
H     -3.36911778    -1.27123981     1.06129875
H     -3.96556169     1.87694890     0.21328888
H     -1.52261730     3.73842582    -0.53104542
H      1.32871228     1.65821751    -0.16256722
O     -6.84860325    -1.23104690    -0.75209727
H     -6.91484903    -2.05181797    -0.25108576
H     -7.45567216    -1.28893456    -1.49932105
O     -4.60308830     1.15569731    -2.48250993
H     -4.19373367     1.97155406    -2.16679088
H     -5.28122801     1.39705673    -3.12440025
O     -5.59826587     1.24900434     0.37497949
H     -6.36077534     1.78220462     0.11044899
H     -5.78364617     0.90266411     1.25808474
O     -3.78994450    -1.55932358    -1.91965090
H     -3.38666780    -1.12523839    -2.68230196
H     -4.12854180    -2.41394135    -2.21617998
34
E_Eh=-65.22788498 rel_kcal=1.405 rel_kJ_per_mol=5.88
Cu    -4.99965338    -0.22821267    -1.10410101
C      3.70544880    -1.10189298     0.65364894
O      2.52015865    -0.34254891     0.43227849
C      1.35844086    -0.94997190     0.65273453
O      1.26405120    -2.10460331     1.02633046
C      0.19210413    -0.07527121     0.39549834
C     -1.08180365    -0.60741122     0.61000057
C     -2.20473309     0.16892666     0.40368405
O     -3.46509808    -0.29035506     0.61113516
C     -2.06377511     1.50414686    -0.03810136
O     -3.09284312     2.30037615    -0.29659614
C     -0.75992010     2.03360399    -0.25176543
O     -0.61552481     3.29671384    -0.65692745
C      0.35445712     1.23778114    -0.03395818
H      3.77607361    -1.39141307     1.70318732
H      4.53097381    -0.45365400     0.37676042
H      3.69512533    -2.00333222     0.03916665
H     -1.15082127    -1.63125251     0.94302599
H     -3.42948319    -1.17924265     1.00266888
H     -3.96511332     1.94091095     0.01883100
H     -1.48077219     3.74649771    -0.71577454
H      1.33585313     1.65021021    -0.19295190
O     -6.83474900    -1.19757023    -0.86963205
H     -7.43717498    -1.27949910    -1.61807688
H     -6.90249279    -2.00299127    -0.34455240
O     -4.57229148     1.12723012    -2.67414476
H     -4.18224927     1.96561788    -2.39580242
H     -5.23863052     1.32176045    -3.34358383
O     -5.60501982     1.33895576     0.15886596
H     -6.35375062     1.87186537    -0.14258916
H     -5.81657162     1.02355755     1.04742908
O     -3.74922402    -1.55440890    -1.98638297
H     -3.32135601    -1.14167302    -2.74736234
H     -4.08162527    -2.41512869    -2.27123399
34
E_Eh=-65.22788116 rel_kcal=1.407 rel_kJ_per_mol=5.89
Cu    -5.07303267    -0.28591138    -1.02857927
C      2.18478988    -3.06424310     1.25934609
O      1.08278756    -2.19650068     1.00644607
C      1.35750215    -0.97418018     0.55379958
O      2.48866517    -0.57822563     0.34679906
C      0.13996852    -0.16041820     0.33825217
C     -1.12835780    -0.68650383     0.59511379
C     -2.24990866     0.09913335     0.41324774
O     -3.50681982    -0.35076917     0.65812323
C     -2.11699554     1.43089279    -0.04173937
O     -3.15361430     2.22832878    -0.27040593
C     -0.81971836     1.95248622    -0.30181327
O     -0.68018451     3.21184635    -0.72133330
C      0.29257195     1.14786651    -0.11010628
H      2.75486423    -3.22728550     0.34362085
H      1.75473042    -3.99336387     1.62004819
H      2.84671736    -2.62599524     2.00778281
H     -1.20888384    -1.70426212     0.93897451
H     -3.46706421    -1.23541191     1.05971466
H     -4.01187150     1.87410279     0.08534204
H     -1.54348680     3.66856031    -0.74858101
H      1.27847934     1.54008391    -0.29850770
O     -6.89660790    -1.27248992    -0.79530138
H     -7.50557470    -1.34369165    -1.53949567
H     -6.95574304    -2.08727821    -0.28358562
O     -4.67373712     1.09177739    -2.58523309
H     -4.25675453     1.91187456    -2.29113717
H     -5.35530492     1.32206280    -3.22731027
O     -5.66120030     1.26622046     0.25802595
H     -6.41577398     1.79984209    -0.02703673
H     -5.85632785     0.94713923     1.14921984
O     -3.82787433    -1.58923677    -1.95003179
H     -3.42975255    -1.16428405    -2.72049880
H     -4.15623865    -2.45279505    -2.23157982
34
E_Eh=-65.22766507 rel_kcal=1.543 rel_kJ_per_mol=6.45
Cu    -5.04527755    -0.26357735    -1.00884033
C      3.71154400    -1.06729005     0.60661594
O      2.50717809    -0.34619180     0.36198491
C      1.36113993    -0.96444256     0.63853816
O      1.30036972    -2.09731403     1.07895469
C      0.17310059    -0.12773668     0.36002243
C     -1.08402987    -0.66055972     0.64629474
C     -2.21927530     0.09659022     0.43674969
O     -3.46991917    -0.35734136     0.69472378
C     -2.11174917     1.41280221    -0.07634425
O     -3.16673203     2.17421041    -0.30056375
C     -0.82339402     1.92818867    -0.39689168
O     -0.79776359     3.16515741    -0.90443962
C      0.30241689     1.15684425    -0.16640675
H      3.77820829    -1.34256160     1.66024110
H      4.52125195    -0.39893556     0.33077734
H      3.73512853    -1.97590398     0.00327229
H     -1.13098765    -1.66453689     1.03801439
H     -3.42484898    -1.23523996     1.10989525
H     -3.99868279     1.83001700     0.12006098
H      0.10287498     3.47648068    -1.08333502
H      1.28552561     1.54010207    -0.38448224
O     -6.86236437    -1.27805520    -0.81046750
H     -7.46475133    -1.33804809    -1.56105187
H     -6.91654621    -2.10459352    -0.31749223
O     -4.65332511     1.14413348    -2.54594968
H     -4.17924837     1.92921467    -2.23703142
H     -5.34707772     1.43619704    -3.14855963
O     -5.66400328     1.22321723     0.32085527
H     -6.40882511     1.77279642     0.04091603
H     -5.87255780     0.88149454     1.20038811
O     -3.78946204    -1.52988160    -1.96058386
H     -3.44253608    -1.09214832    -2.74878722
H     -4.09946856    -2.40531464    -2.22581224
34
E_Eh=-65.22715590 rel_kcal=1.862 rel_kJ_per_mol=7.79
Cu    -5.02605191    -0.18520858    -0.96640926
C      3.72709054    -1.21111468     0.54678213
O      2.55323803    -0.43512481     0.32234863
C      1.38380029    -1.01084889     0.58437703
O      1.27362025    -2.15112701     0.99573336
C      0.23119705    -0.11839445     0.32676091
C     -1.04768449    -0.60759124     0.60300230
C     -2.15548595     0.19286188     0.40610820
O     -3.42104066    -0.21577929     0.67421323
C     -1.99350361     1.50687659    -0.09135820
O     -3.00874180     2.32011098    -0.34093844
C     -0.68446254     1.99031159    -0.37222561
O     -0.52357040     3.23188807    -0.83607080
C      0.41396271     1.17261065    -0.16044549
H      3.78652296    -1.50924233     1.59463628
H      4.56269165    -0.57162832     0.27982584
H      3.70991266    -2.10780821    -0.07442212
H     -1.13232280    -1.61554540     0.97801790
H     -3.40203328    -1.08133522     1.11635601
H     -3.88141644     1.99064994     0.00821719
H     -1.38014147     3.69992532    -0.88142755
H      1.40038256     1.54974549    -0.36855090
O     -6.69015755    -1.47317323    -0.81593996
H     -6.99813646    -1.76522728     0.04975590
H     -7.46747629    -1.28199311    -1.35402308
O     -5.05034367     1.24560605    -2.52738765
H     -5.41688421     1.08174164    -3.40281180
H     -4.28712213     1.82646299    -2.62275504
O     -5.53491205     1.47296709     0.19558197
H     -5.89507359     1.34489000     1.08294136
H     -6.10511274     2.09349075    -0.27993958
O     -3.93270065    -1.69035039    -1.76021773
H     -3.61568983    -1.57878268    -2.66458519
H     -4.41538552    -2.52687742    -1.72538482
34
E_Eh=-65.22614893 rel_kcal=2.494 rel_kJ_per_mol=10.44
Cu    -5.07129964    -0.23950921    -1.03157518
C      3.74068896    -1.02508947     0.73205081
O      2.55294944    -0.27664363     0.48762541
C      1.39328435    -0.89173025     0.69386343
O      1.30074428    -2.04466971     1.07393302
C      0.22354765    -0.03001657     0.41009768
C     -1.04824784    -0.56459895     0.63928855
C     -2.17579398     0.19438588     0.39980008
O     -3.43742506    -0.27721094     0.60174780
C     -2.04441723     1.51568086    -0.07585079
O     -3.08389312     2.29869598    -0.34907167
C     -0.74593053     2.04874096    -0.30421869
O     -0.60896118     3.30060891    -0.74226909
C      0.37600551     1.26727997    -0.06237974
H      3.80021667    -1.30220709     1.78561395
H      4.56514887    -0.37424186     0.45818620
H      3.74424774    -1.93338108     0.12762771
H     -1.10720225    -1.57501018     1.01352164
H     -3.40516988    -1.11341887     1.09478130
H     -3.94094853     1.95351196     0.01639033
H     -1.47561192     3.74710938    -0.80822048
H      1.35393463     1.68264147    -0.23441557
O     -6.86591405    -1.22555628    -0.63042583
H     -6.76632253    -2.13611497    -0.32715392
H     -7.52576557    -1.22932712    -1.33501520
O     -4.57144241     1.07446920    -2.59645243
H     -4.08176186     1.85773695    -2.31049233
H     -5.25031304     1.36556713    -3.21699350
O     -5.59742903     1.35835239     0.21078419
H     -6.33052028     1.91055663    -0.09531144
H     -5.82806542     1.04510871     1.09578327
O     -4.25118689    -1.81153176    -2.01153542
H     -3.38928663    -2.12822198    -1.71772285
H     -4.19289944    -1.65751378    -2.96333329
34
E_Eh=-65.22561673 rel_kcal=2.828 rel_kJ_per_mol=11.83
Cu    -5.00715047    -0.40806903    -0.85771215
C      3.70282789    -0.98943993     0.90756942
O      2.53553128    -0.26773962     0.52394895
C      1.36161024    -0.78330474     0.87374961
O      1.24228037    -1.82658515     1.49038201
C      0.21291651     0.04137204     0.43757437
C     -1.06749741    -0.38671672     0.80071562
C     -2.17883006     0.34806444     0.44196649
O     -3.44312593    -0.02885722     0.77604599
C     -2.02378067     1.54759162    -0.29195800
O     -3.02258466     2.32546125    -0.65919549
C     -0.71062604     1.96244204    -0.66860875
O     -0.55531171     3.08422366    -1.37077512
C      0.39147741     1.20601209    -0.30105649
H      3.75735562    -1.06588319     1.99465229
H      4.54450449    -0.42490811     0.51864592
H      3.67979057    -1.99483224     0.48431188
H     -1.14461181    -1.29453098     1.37901155
H     -3.41356564    -0.73596597     1.44283099
H     -3.91713946     2.01719938    -0.34972198
H     -1.41856019     3.51372564    -1.53308808
H      1.37628685     1.53508845    -0.58475927
O     -7.04039832    -0.89350225    -0.92585416
H     -7.37373347    -1.23113845    -1.76567551
H     -7.41948235    -1.42909468    -0.21858804
O     -4.04239030     0.44256091    -2.54604512
H     -4.46499492     1.22382507    -2.92255147
H     -3.88065123    -0.17035980    -3.27168783
O     -5.54288764     1.46501861    -0.05765781
H     -5.72265934     1.43479518     0.89175571
H     -6.31453785     1.86424691    -0.48211860
O     -4.27008715    -2.26420380    -1.26284432
H     -4.58784616    -3.05881489    -0.81839299
H     -3.31828641    -2.34657513    -1.38409480
