19
E_Eh=-41.13724270 rel_kcal=0.000 rel_kJ_per_mol=0.00
C      3.98415018    -0.26529905    -0.17168410
O      2.62858634     0.15200662    -0.29944697
C      1.68588508    -0.67724020     0.25305821
O      2.05884657    -1.71514466     0.81844776
C      0.34375564    -0.22262698     0.10094132
C     -0.71139912    -0.99291044     0.63099502
C     -2.05971385    -0.64508008     0.54057939
O     -3.00551323    -1.38096994     1.04207721
C     -2.35036423     0.59644263    -0.15162710
O     -3.54046541     1.08289915    -0.33555706
C     -1.26438748     1.35079677    -0.67571735
O     -1.65210844     2.51926616    -1.31951523
C      0.04675724     0.97819752    -0.56712104
H      4.12389840    -1.23671435    -0.65070736
H      4.56558507     0.50763662    -0.66497286
H      4.25126434    -0.35329776     0.88357074
H     -0.45966700    -1.91742250     1.14340943
H     -2.63428905     2.47118134    -1.21290955
H      0.83020666     1.59138577    -0.98512081
19
E_Eh=-41.13704869 rel_kcal=0.122 rel_kJ_per_mol=0.51
C      2.65424133    -2.98733022     0.84180971
O      1.42463397    -2.32608920     0.55883175
C      1.50064918    -0.97160486     0.36845995
O      2.60540781    -0.41388347     0.45009968
C      0.25373372    -0.34048423     0.08762340
C     -0.95400315    -1.06236428     0.01533753
C     -2.19368921    -0.48071255    -0.25640960
O     -3.28856813    -1.17703515    -0.31613469
C     -2.19636513     0.95466813    -0.47061892
O     -3.25214137     1.66358721    -0.73347667
C     -0.96073325     1.65444080    -0.39148650
O     -1.07434601     3.02135196    -0.61310932
C      0.23512139     1.05015611    -0.12294673
H      3.35606050    -2.84013803     0.01819419
H      2.39246860    -4.03467948     0.95725275
H      3.09404721    -2.58319766     1.75601664
H     -0.93396228    -2.13469178     0.17807644
H     -2.04792013     3.10078271    -0.77099319
H      1.15320314     1.61769988    -0.07080651
