20
E_Eh=-41.37635180 rel_kcal=0.000 rel_kJ_per_mol=0.00
C      2.65523087    -2.98911309     0.84308421
O      1.43060948    -2.31619321     0.55989976
C      1.50844536    -0.97793487     0.36983665
O      2.59154890    -0.39964664     0.44268589
C      0.24100751    -0.35221739     0.08788989
C     -0.95088365    -1.09409600     0.02215352
C     -2.13539243    -0.46403566    -0.24795555
O     -3.32439436    -1.15220397    -0.32300702
C     -2.20392852     0.94106180    -0.46721402
O     -3.31914658     1.52847553    -0.71967115
C     -0.98018364     1.66445026    -0.39507725
O     -1.05836632     3.02121820    -0.61082103
C      0.20509046     1.03688477    -0.12568028
H      3.35837359    -2.84930400     0.02004696
H      2.38823757    -4.03480195     0.95953663
H      3.09910769    -2.58972900     1.75675908
H     -0.93556990    -2.16007554     0.18346697
H     -3.99338827    -0.46844402    -0.52586974
H     -2.00728981     3.18927893    -0.77864416
H      1.12359533     1.60189226    -0.07453511
20
E_Eh=-41.37634348 rel_kcal=0.005 rel_kJ_per_mol=0.02
C      3.85890114    -0.74012310     0.68882379
O      2.59695157    -0.13851050     0.40930641
C      1.52771325    -0.96835676     0.37446213
O      1.66658670    -2.17365272     0.57611395
C      0.28101057    -0.30376735     0.08849918
C     -0.89594895    -1.07008154     0.02765865
C     -2.09700541    -0.47252630    -0.24119991
O     -3.27070765    -1.18754946    -0.31079336
C     -2.19508641     0.92950953    -0.46480043
O     -3.32216633     1.49438502    -0.71670286
C     -0.98617957     1.67858988    -0.39787639
O     -1.09533786     3.03221943    -0.61837514
C      0.21649690     1.08313922    -0.12945252
H      3.83400024    -1.22534826     1.66620426
H      4.57566504     0.07494011     0.67209383
H      4.09308314    -1.48881339    -0.07010535
H     -0.84116672    -2.13518015     0.19497613
H     -3.95509068    -0.51894110    -0.51429260
H     -2.04800041     3.17851070    -0.78471739
H      1.11274789     1.68095702    -0.08624249
