21
E_Eh=-41.57953966 rel_kcal=0.000 rel_kJ_per_mol=0.00
C      3.99351641     0.12736958     0.12619524
O      2.59591193     0.41606095     0.08423613
C      1.76459291    -0.62519019     0.03730015
O      2.16205022    -1.77879280     0.02790452
C      0.34591093    -0.23890170    -0.00010089
C     -0.04471964     1.09692657     0.01274577
C     -1.39132790     1.42157737    -0.01951937
O     -1.77271834     2.72068333    -0.00672563
C     -2.35238009     0.40364151    -0.06379909
O     -3.66578639     0.75622358    -0.09148028
C     -1.95283714    -0.93757383    -0.07659762
O     -2.95023393    -1.86552424    -0.11858968
C     -0.60847486    -1.25483019    -0.04595462
H      4.28667090    -0.43182083    -0.76344105
H      4.22576181    -0.46814984     1.01027565
H      4.48951336     1.09207593     0.16300938
H      0.68540736     1.88695214     0.04851305
H     -2.74391884     2.76899794    -0.03197538
H     -4.21000588    -0.04793801    -0.11981837
H     -2.58543882    -2.76193740    -0.11690999
H     -0.27149404    -2.27984987    -0.05526791
21
E_Eh=-41.57953304 rel_kcal=0.004 rel_kJ_per_mol=0.02
C      3.98562903    -0.24632009    -0.18223422
O      2.61144990     0.12703606    -0.28512541
C      1.71787746    -0.69776934     0.26134733
O      2.04095085    -1.72912279     0.82776130
C      0.32914850    -0.23767245     0.10950972
C     -0.68556608    -1.02826118     0.64833275
C     -2.00445054    -0.63416236     0.52884958
O     -3.05546760    -1.34552408     1.02589967
C     -2.31780884     0.55802298    -0.13370011
O     -3.60336935     0.97992228    -0.27309113
C     -1.29624883     1.34994049    -0.67335210
O     -1.59453520     2.50452638    -1.31464494
C      0.02442976     0.94960324    -0.54991386
H      4.14858159    -1.20982539    -0.66724940
H      4.53991210     0.54184361    -0.68183599
H      4.27391155    -0.32553793     0.86693227
H     -0.41495774    -1.94257238     1.15349907
H     -2.74578218    -2.14931752     1.46698937
H     -4.19641441     0.33718010     0.14973559
H     -2.55880018     2.63244095    -1.30924699
H      0.80151021     1.56556940    -0.96846255
21
E_Eh=-41.57949397 rel_kcal=0.029 rel_kJ_per_mol=0.12
C      3.95642066    -0.55592979     0.07508241
O      2.53473226    -0.68190484     0.11058602
C      1.82367345     0.41095663    -0.16785056
O      2.34669905     1.47883951    -0.44163548
C      0.37028246     0.19271620    -0.10978163
C     -0.46602063     1.27420260    -0.38548814
C     -1.83779126     1.11435358    -0.34280889
O     -2.72646925     2.11537024    -0.59967588
C     -2.38357986    -0.13333299    -0.02039276
O     -3.72826109    -0.33050183     0.03549674
C     -1.54084006    -1.21786096     0.25430203
O     -2.06449338    -2.42742995     0.56405510
C     -0.16610456    -1.05142570     0.20900520
H      4.28374845     0.18991252     0.80081151
H      4.27953664    -0.24661060    -0.91995889
H      4.34268484    -1.53928768     0.32368234
H     -0.01708884     2.22461130    -0.62952266
H     -2.26398158     2.93789717    -0.81452864
H     -4.18009738     0.50460917    -0.16969115
H     -3.03526984    -2.36783657     0.54933972
H      0.47221993    -1.89134802     0.42231633
21
E_Eh=-41.57949345 rel_kcal=0.029 rel_kJ_per_mol=0.12
C      3.96407601    -0.50518127    -0.17272683
O      2.54437087    -0.65016413    -0.21483428
C      1.81752347     0.43592219     0.04897258
O      2.32499743     1.51310752     0.31546593
C      0.36746139     0.19807349    -0.01491788
C     -0.15081551    -1.05549618    -0.32665620
C     -1.52299092    -1.24036269    -0.37778781
O     -2.02911285    -2.45911910    -0.68056885
C     -2.38134526    -0.16489538    -0.11609113
O     -3.72298615    -0.38041356    -0.17711916
C     -1.85373236     1.09236794     0.19924845
O     -2.75686404     2.08352081     0.44355992
C     -0.48442283     1.27060012     0.24776502
H      4.28556264     0.23881633    -0.90295049
H      4.27760458    -0.18326740     0.82138809
H      4.36457042    -1.48541979    -0.41092810
H      0.49964638    -1.88854949    -0.53001737
H     -3.00066513    -2.41222584    -0.67112343
H     -4.18704851     0.45031442     0.01839542
H     -2.30653873     2.91366805     0.65495904
H     -0.04929092     2.22870392     0.48664688
21
E_Eh=-41.57906821 rel_kcal=0.296 rel_kJ_per_mol=1.24
C      3.95197447     0.06651332     0.10812673
O      2.54398578     0.29240788     0.17964153
C      1.75050991    -0.68653784    -0.26503143
O      2.19432552    -1.72973964    -0.71247614
C      0.31927901    -0.36716085    -0.15444174
C     -0.10778866     0.85133137     0.37277027
C     -1.46080604     1.11983190     0.46306551
O     -1.96846758     2.28133906     0.96360468
C     -2.39612531     0.17366221     0.02741267
O     -3.73368440     0.40803028     0.10316706
C     -1.96346847    -1.04852594    -0.50113715
O     -2.86272119    -1.96820844    -0.92373417
C     -0.60657042    -1.31166416    -0.58885475
H      4.25177943    -0.09916369    -0.92756120
H      4.41199822     0.96364308     0.51022170
H      4.22027673    -0.81139661     0.69739912
H      0.62210747     1.57124930     0.70458039
H     -1.25723116     2.87795032     1.23811890
H     -3.88022500     1.28922976     0.48550285
H     -3.76153941    -1.62218669    -0.78578662
H     -0.26760888    -2.25060465    -0.99458820
21
E_Eh=-41.57906444 rel_kcal=0.298 rel_kJ_per_mol=1.25
C      3.35006660    -2.36855711     0.05159662
O      1.98619311    -1.94821891     0.01306552
C      1.75651453    -0.63205619     0.03264399
O      2.66026050     0.18454098     0.07780310
C      0.32566763    -0.29411610    -0.00435210
C     -0.04036765     1.04894435     0.01006719
C     -1.37807113     1.40659264    -0.01950627
O     -1.73299107     2.71317026    -0.00505065
C     -2.35825227     0.40763494    -0.06295057
O     -3.66493385     0.78430325    -0.08814988
C     -1.98452502    -0.94138820    -0.07753829
O     -3.00163739    -1.84747454    -0.11880488
C     -0.64774090    -1.29191588    -0.04927780
H      3.82452562    -2.01430682     0.96774373
H      3.89101789    -1.96348181    -0.80470727
H      3.32178620    -3.45313270     0.01964480
H      0.71843997     1.81323997     0.04552064
H     -2.70336964     2.78013835    -0.02909035
H     -4.22381931    -0.01010242    -0.11567688
H     -2.65716442    -2.75220771    -0.11931240
H     -0.34759447    -2.32674855    -0.06030095
21
E_Eh=-41.57902248 rel_kcal=0.325 rel_kJ_per_mol=1.36
C      3.70785622     0.66202053    -1.20265293
O      2.34199291     0.69424029    -0.78803504
C      1.77293423    -0.47644204    -0.48570714
O      2.37977044    -1.53113618    -0.55534943
C      0.36773415    -0.34702106    -0.07161816
C     -0.33294202    -1.50134873     0.26701777
C     -1.65826795    -1.42137956     0.66099324
O     -2.33882129    -2.54479814     0.98987889
C     -2.28709027    -0.17154020     0.71546372
O     -3.58903573    -0.11926796     1.10519349
C     -1.57803018     0.98603623     0.37348563
O     -2.26653974     2.15948781     0.45356253
C     -0.25519598     0.89966226    -0.01837840
H      4.32875703     0.23821576    -0.41224679
H      3.97719139     1.69471611    -1.40054725
H      3.81198502     0.04954739    -2.09933546
H      0.15645469    -2.46030977     0.22259893
H     -3.24830926    -2.30505905     1.23882817
H     -3.88643053     0.80566226     1.09371668
H     -1.70555058     2.90527942     0.19639063
H      0.30153743     1.78343461    -0.28325908
21
E_Eh=-41.57901489 rel_kcal=0.329 rel_kJ_per_mol=1.38
C      3.63057488    -0.82861446    -1.32933460
O      2.30651382    -0.79784781    -0.79605996
C      1.69601158     0.39024213    -0.75958066
O      2.23217678     1.40865382    -1.16077870
C      0.33949948     0.32707731    -0.19501648
C     -0.20232945    -0.88051649     0.24452336
C     -1.48182309    -0.90482980     0.76734155
O     -2.09136250    -2.03731512     1.21816549
C     -2.22765829     0.27643736     0.85674605
O     -3.48848388     0.28548936     1.36684312
C     -1.67966549     1.48707229     0.41574570
O     -2.39576525     2.63305301     0.50034491
C     -0.39813298     1.50463165    -0.10895451
H      3.62603840    -0.47716407    -2.36201263
H      4.28567610    -0.18476053    -0.74088178
H      3.94496843    -1.86578514    -1.27018257
H      0.38233400    -1.78289207     0.17261808
H     -1.51065155    -2.80457317     1.11277518
H     -3.73023266    -0.61777854     1.63085825
H     -3.26623387     2.43643036     0.88804414
H      0.02854553     2.43298992    -0.45120391
21
E_Eh=-41.57572771 rel_kcal=2.392 rel_kJ_per_mol=10.01
C      3.34854854    -2.38112535     0.05107678
O      1.98641331    -1.95595131     0.01345693
C      1.76152039    -0.63980255     0.03275841
O      2.66788697     0.17582604     0.07780387
C      0.33426737    -0.29325717    -0.00326775
C     -0.01958660     1.05454344     0.01129536
C     -1.35267177     1.41458107    -0.01845119
O     -1.78463679     2.70745192    -0.00759431
C     -2.35291877     0.43214911    -0.06208481
O     -3.66058997     0.77385050    -0.08910185
C     -1.99055087    -0.92356091    -0.07704866
O     -2.99035355    -1.83747429    -0.11855907
C     -0.65170609    -1.27666412    -0.04829066
H      3.82541672    -2.02748517     0.96625919
H      3.88983447    -1.97976551    -0.80680723
H      3.31649180    -3.46560266     0.02086694
H      0.76423264     1.79530666     0.04664280
H     -1.03569434     3.31993433     0.02383087
H     -3.73311308     1.74424524    -0.07116604
H     -2.62953923    -2.73777962    -0.11850329
H     -0.36190612    -2.31475191    -0.05946004
21
E_Eh=-41.57572004 rel_kcal=2.397 rel_kJ_per_mol=10.03
C      3.99914396     0.12243116     0.12735120
O      2.60150561     0.40983407     0.08468919
C      1.76931244    -0.63342483     0.03541645
O      2.16881537    -1.78621515     0.02500781
C      0.35258153    -0.24623519    -0.00073068
C     -0.03592379     1.09167932     0.01225840
C     -1.37838059     1.43032423    -0.01906349
O     -1.81233289     2.71411557    -0.00884808
C     -2.35014815     0.41863222    -0.06296449
O     -3.65988237     0.75160705    -0.09063520
C     -1.94845839    -0.92522906    -0.07577226
O     -2.95116649    -1.84812449    -0.11743418
C     -0.60782346    -1.25518481    -0.04603985
H      4.29410244    -0.43410458    -0.76331789
H      4.23147352    -0.47508059     1.01001884
H      4.49431650     1.08749412     0.16713507
H      0.71900084     1.86015204     0.04774107
H     -1.06146282     3.32719524     0.02174328
H     -4.19135396    -0.06330862    -0.11806972
H     -2.59132723    -2.74671165    -0.11594737
H     -0.27968681    -2.28302679    -0.05599727
21
E_Eh=-41.57567237 rel_kcal=2.427 rel_kJ_per_mol=10.15
C      3.65627041     1.14404328     0.61338834
O      2.30010589     0.98126484     0.19846826
C      1.67839802    -0.13626927     0.58475263
O      2.23050150    -0.98858384     1.26056980
C      0.28873402    -0.21941741     0.11564036
C     -0.28115399     0.79500871    -0.65134053
C     -1.59258128     0.67497517    -1.06917226
O     -2.22966125     1.61737778    -1.82043307
C     -2.35344691    -0.45405567    -0.72966862
O     -3.63693003    -0.57186739    -1.13672041
C     -1.77357580    -1.47161545     0.04267390
O     -2.54329560    -2.54421773     0.34937389
C     -0.45889277    -1.34448578     0.45709565
H      3.97306506     2.09962252     0.20761327
H      4.26738268     0.32924911     0.22267541
H      3.71730873     1.13983877     1.70256664
H      0.30565360     1.66100463    -0.91002744
H     -1.64145089     2.36334451    -2.00708831
H     -3.87581011     0.21647973    -1.65561752
H     -2.04218477    -3.17943322     0.88356641
H      0.01156352    -2.11226327     1.05216513
21
E_Eh=-41.57566335 rel_kcal=2.432 rel_kJ_per_mol=10.18
C      3.35540296    -2.37321259     0.05095613
O      1.99130048    -1.95419717     0.01353251
C      1.76013885    -0.63862647     0.03341134
O      2.66273139     0.18078375     0.07800216
C      0.33096499    -0.30033459    -0.00324660
C     -0.03214709     1.04473607     0.01106270
C     -1.36513498     1.41712887    -0.01854191
O     -1.77049786     2.71033195    -0.00666365
C     -2.35626818     0.42504847    -0.06269319
O     -3.65969661     0.78236156    -0.08936714
C     -1.98103986    -0.92689590    -0.07672955
O     -3.00320287    -1.82789110    -0.11840895
C     -0.64842577    -1.29063340    -0.04824434
H      3.83049394    -2.01868222     0.96672396
H      3.89532266    -1.96819047    -0.80607873
H      3.32826391    -3.45781552     0.01925250
H      0.75049097     1.78704152     0.04685425
H     -1.00608889     3.30592551     0.02495854
H     -4.20631212    -0.02278141    -0.11717831
H     -2.66294823    -2.73439997    -0.11846836
H     -0.35703745    -2.32801978    -0.05922524
21
E_Eh=-41.57562404 rel_kcal=2.457 rel_kJ_per_mol=10.28
C      3.84514760    -0.29696348     0.57159593
O      2.50919937     0.06404447     0.22108680
C      1.53585558    -0.76264904     0.61325843
O      1.76187882    -1.78253584     1.24314429
C      0.19609470    -0.31527622     0.20947999
C     -0.89856409    -1.10125202     0.56339639
C     -2.18249327    -0.72645030     0.20661502
O     -3.27920579    -1.45620654     0.52558526
C     -2.37734093     0.45861559    -0.51836313
O     -3.62831566     0.82949132    -0.87095503
C     -1.26907502     1.24446433    -0.86913662
O     -1.54416336     2.37991375    -1.57175520
C      0.00959513     0.86341360    -0.51029662
H      3.94272026    -0.36227425     1.65613436
H      4.47542793     0.48965947     0.16897311
H      4.09767358    -1.26467108     0.13587383
H     -0.72094349    -2.00827991     1.12086708
H     -3.02527918    -2.24911262     1.02232579
H     -3.58014017     1.66685463    -1.36525180
H     -0.73078822     2.86483830    -1.77317889
H      0.86271622     1.46437582    -0.77939900
