25
E_Eh=-42.49043365 rel_kcal=0.000 rel_kJ_per_mol=0.00
Pb    -0.15513725     0.02525369    -0.03429617
O      1.30246836    -0.08309076     2.09051735
H      2.10648767    -0.52575614     1.79428356
H      0.96552041    -0.58008543     2.84302362
O      0.66830120     2.39535051     0.74536516
H      0.05251137     3.10771125     0.94475359
H      1.17581276     2.21837555     1.54595549
O     -2.13623398     0.08121000     1.63924075
H     -2.01516512     0.48729864     2.50340262
H     -2.32807338    -0.85275072     1.78689394
O     -0.82307165    -2.32647912     0.81757638
H     -0.10089748    -2.88457043     1.12403333
H     -1.19472517    -2.74818123     0.03385300
O      1.56087748     1.14971641    -1.66750008
H      1.82418044     1.92255923    -1.15350631
H      1.30004173     1.46531091    -2.53856624
O     -2.36058626     0.95937328    -1.11346006
H     -2.40338523     1.82147704    -1.53929431
H     -2.99188611     0.96377440    -0.38469385
O     -1.10222860    -1.49557240    -1.93037279
H     -0.65211866    -1.52816307    -2.78058705
H     -1.96476427    -1.09216099    -2.08496984
O      1.97737035    -1.40640054    -0.41540729
H      2.52315195    -0.83270050    -0.96639664
H      1.85492591    -2.22749451    -0.90281536
25
E_Eh=-42.49017107 rel_kcal=0.165 rel_kJ_per_mol=0.69
Pb    -0.05536236     0.06045790     0.07431532
O      1.97731399    -0.37772234     1.62901114
H      1.84506991    -0.72713885     2.51583501
H      2.34848970     0.50783852     1.72514755
O      1.11819201     2.25034578     0.89741519
H      1.54077518     2.60004911     0.10425454
H      0.61542774     2.96662600     1.29739794
O     -1.70495880     0.47310430     2.05509182
H     -2.03205238    -0.41949365     2.22122053
H     -1.39899328     0.82450903     2.89703759
O     -1.06519462    -2.12107211     1.08519191
H     -0.49992564    -2.83467721     1.39732895
H     -1.60316187    -2.47085208     0.36490912
O      1.29337782     1.26194184    -1.80058744
H      0.88387902     1.48713085    -2.64215130
H      1.99577274     0.62744039    -1.98772150
O     -2.18079381     1.41061980    -0.61120708
H     -2.67015142     1.47392423     0.21798558
H     -2.12080687     2.29728873    -0.98051780
O     -1.58850978    -1.21631899    -1.59926217
H     -1.27507426    -1.37870464    -2.49477941
H     -2.35816968    -0.63827310    -1.66698070
O      1.75242670    -1.45707352    -1.02754300
H      1.52216737    -2.33470433    -1.34838636
H      2.41868189    -1.56379487    -0.33845371
25
E_Eh=-42.48989332 rel_kcal=0.339 rel_kJ_per_mol=1.42
Pb    -0.03286583    -0.02182684     0.00217761
O      1.43157430    -1.06110320     1.90306352
H      1.01957610    -1.92202958     2.04394897
H      1.49993890    -0.63504988     2.76295002
O      0.95213254     2.22607619     0.86128660
H      1.82201814     2.17519398     1.27042195
H      1.05254583     2.75250842     0.05938462
O     -1.51668423     1.08225204     1.84422380
H     -1.63311300     0.67537027     2.70844144
H     -1.08677156     1.93426975     1.98592076
O     -0.97940617    -2.29073096     0.88810668
H     -1.07005170    -2.82649978     0.09134433
H     -1.85050659    -2.25406208     1.29608521
O      1.01482875     1.44288960    -1.88849213
H      0.58763168     1.51408046    -2.74765228
H      1.87873874     1.03830654    -2.03232798
O     -2.24922161     0.99173670    -0.92345752
H     -2.80220868     1.10031794    -0.14092511
H     -2.16847167     1.86161569    -1.32779800
O     -1.12123834    -1.50774604    -1.85533523
H     -0.70926678    -1.62133746    -2.71745907
H     -1.97084414    -1.07453337    -2.00085811
O      2.25330229    -0.94975012    -0.82829874
H      2.23317270    -1.82107827    -1.23690826
H      2.76901457    -1.03648046    -0.01786889
25
E_Eh=-42.48976991 rel_kcal=0.417 rel_kJ_per_mol=1.74
Pb     0.01678367    -0.08139452     0.07768980
O      2.26102209    -0.30564573     1.40005588
H      2.24541997    -0.87845171     2.17325915
H      2.43032638     0.58804061     1.72047709
O      0.49773432     1.93242576     1.66008747
H      0.34020611     2.83096505     1.35474945
H     -0.09768717     1.77501246     2.40296446
O     -1.62918698     0.04145673     2.09624116
H     -2.55719037     0.13387656     1.85760548
H     -1.53872530    -0.81310585     2.53354263
O     -0.50410799    -2.41762551     1.11171569
H      0.20052485    -3.05405828     1.26655561
H     -1.12408268    -2.82056319     0.49218803
O      0.84341544     1.53795507    -1.79733436
H      1.47703493     2.20926789    -1.52418597
H      1.30329291     0.96027697    -2.41746611
O     -1.90695431     1.32679154    -0.97109924
H     -2.36097387     1.98036021    -0.43037266
H     -1.46969600     1.80301456    -1.68740167
O     -1.54306577    -1.49336508    -1.45041831
H     -1.21301822    -1.69659513    -2.33144765
H     -2.32671393    -0.94358994    -1.56770490
O      1.95291060    -1.07673594    -1.37597417
H      1.92721729    -1.99211930    -1.67111429
H      2.72286804    -0.98499611    -0.80203988
25
E_Eh=-42.48928063 rel_kcal=0.724 rel_kJ_per_mol=3.03
Pb     0.10010566     0.19927706     0.16013236
O      2.17228485    -0.38234784     1.66303089
H      2.47514926    -1.22986091     1.31758750
H      2.92824689     0.21202414     1.62970022
O      0.12445005     1.85308135     2.18976944
H      0.61367385     1.45614957     2.91787808
H      0.42523353     2.76358565     2.10381477
O     -2.27704844     0.36611181     1.22349145
H     -2.46212318    -0.48557160     1.63515466
H     -2.19853064     1.00791175     1.93839495
O     -0.46452964    -1.86323830     1.57016408
H      0.07294477    -1.85329357     2.36965315
H     -0.23322899    -2.66422364     1.08784981
O      1.62733372     1.16245189    -1.72329497
H      2.18781729     1.93065021    -1.57349826
H      1.14473028     1.31654590    -2.54169072
O     -1.54550324     1.71537778    -1.22765084
H     -2.37191789     1.55376541    -0.75634633
H     -1.42744116     2.66960539    -1.25768445
O     -1.29902790    -1.19005239    -1.48314248
H     -1.63345394    -0.57434526    -2.14516538
H     -2.06657802    -1.58727246    -1.05866195
O      1.46376170    -1.75884923    -0.87641066
H      2.12535485    -1.37601582    -1.46294762
H      0.82335266    -2.20651832    -1.44168225
25
E_Eh=-42.48925904 rel_kcal=0.737 rel_kJ_per_mol=3.08
Pb    -0.04199952    -0.03628902     0.24412348
O      2.19932983     0.14994448     1.60055207
H      2.24755604    -0.07162756     2.53615413
H      2.64165930     0.99676526     1.48346871
O      0.10312827     2.56366804     0.67985404
H     -0.73432735     2.83083103     0.28048959
H      0.10312486     2.91509883     1.57546915
O     -1.90636374    -0.52026316     2.03208969
H     -2.29077261    -1.39640961     1.92480254
H     -1.75716791    -0.38436495     2.97328942
O     -0.17373791    -2.66131472     0.42423741
H      0.10497908    -3.07546662     1.24657217
H      0.48378879    -2.90609425    -0.23876328
O      0.79100071     1.24481699    -1.80729866
H      1.09245817     2.10160773    -1.48360863
H      0.08595339     1.41702921    -2.44000715
O     -2.25296083     1.26181888    -0.26594767
H     -2.64755303     0.86473101    -1.05052176
H     -2.83188526     1.05057580     0.47571236
O     -1.30788976    -1.04813037    -1.72934620
H     -1.61637605    -1.91577268    -1.44356765
H     -0.72905430    -1.19273170    -2.48520516
O      1.90987448    -1.28829047    -0.96463713
H      2.65217900    -1.24350658    -0.35132313
H      2.14894402    -0.75333668    -1.72997979
25
E_Eh=-42.48862438 rel_kcal=1.135 rel_kJ_per_mol=4.75
Pb     0.04657629     0.10202340    -0.10218324
O      1.80593919     0.25975142     1.77947534
H      1.65807758    -0.29078282     2.55532424
H      2.62444865    -0.04911019     1.37424686
O      0.20356104     2.52570159     0.86646831
H      0.94808579     2.49358513     1.47903373
H      0.43409007     3.15821157     0.17831511
O     -1.50149284     0.46922505     1.93481868
H     -1.34084842     0.01227697     2.76584654
H     -1.36578973     1.41074905     2.09906441
O     -0.37282091    -2.31790781     0.71031980
H     -0.79897091    -2.67638656    -0.07911746
H     -0.98250071    -2.45743827     1.44161364
O      1.30101897     1.60842391    -1.80621288
H      1.00926017     1.68614726    -2.72030314
H      2.25927159     1.51891439    -1.81429752
O     -2.37481674     0.89978073    -0.72485675
H     -2.85518770     0.78049855     0.10335729
H     -2.46430402     1.82605961    -0.97028731
O     -1.23887180    -1.43867022    -1.83992089
H     -0.96751087    -1.55580422    -2.75531804
H     -2.10192825    -1.00687204    -1.85346159
O      2.12943682    -1.44361245    -0.49555254
H      2.37458984    -1.70865697    -1.38720971
H      1.87398211    -2.24648097    -0.02535945
25
E_Eh=-42.48857030 rel_kcal=1.169 rel_kJ_per_mol=4.89
Pb    -0.11888117    -0.15182920     0.09729464
O      2.06478711    -0.43837000     1.56219687
H      2.25731580     0.49211899     1.73272441
H      2.05432914    -0.88694756     2.41343134
O      0.80676072     2.05717369     1.08739912
H      0.94519129     2.70295405     0.38578261
H      0.16764064     2.42347282     1.70842092
O     -1.55079599     0.59916563     2.14883561
H     -2.42512526     0.83943077     1.82371671
H     -1.65911437     0.13662825     2.98530769
O     -1.08896420    -2.57187728     0.45285211
H     -1.99590101    -2.62618271     0.77049799
H     -0.57311660    -3.21075469     0.95561251
O      0.69864309     1.43791647    -1.73515390
H      0.15834913     1.43448503    -2.53263439
H      1.56447781     1.09230608    -1.98161486
O     -2.34350375     0.94235497    -0.60823915
H     -2.28253008     1.85576331    -0.90569371
H     -2.67879487     0.42455762    -1.34932442
O     -1.03452470    -1.15744232    -2.13088416
H     -1.33781594    -2.04138581    -1.89719883
H     -0.34641119    -1.26519604    -2.79535510
O      1.95523783    -1.14902505    -1.16815881
H      1.94090884    -2.08767189    -1.38157236
H      2.64292655    -1.02926057    -0.50201530
25
E_Eh=-42.48850379 rel_kcal=1.211 rel_kJ_per_mol=5.07
Pb     0.06106186    -0.07150024     0.05436527
O      1.94793332    -0.54789793     1.81998880
H      1.85054264     0.17305205     2.45309611
H      2.86596243    -0.54429517     1.53038304
O      0.63207747     1.98380852     1.55347287
H      1.24668948     2.47397127     0.99394891
H     -0.05804908     2.59982534     1.81707203
O     -1.93004527    -0.24457645     1.66919885
H     -1.84738467    -1.16154586     1.96184499
H     -1.94749608     0.30392210     2.45977774
O     -0.13925214    -2.40557846     1.22376510
H      0.58161714    -2.38690280     1.86448076
H      0.04344868    -3.12977552     0.61685623
O      1.53249264     1.68861657    -1.22799025
H      0.88070814     2.18226985    -1.73986846
H      2.27964339     1.50794618    -1.80674737
O     -1.33667952     1.69601855    -1.26990525
H     -1.86774395     1.16297093    -1.87345784
H     -1.95425657     2.21631723    -0.74633213
O     -2.05171996    -1.03339060    -1.12162247
H     -2.74198208    -0.95720263    -0.45201340
H     -1.97414939    -1.96784383    -1.33717309
O      0.91080269    -1.81545644    -1.66013443
H      0.55452007    -1.70868374    -2.54775490
H      1.84812673    -2.01660761    -1.74565964
25
E_Eh=-42.48845581 rel_kcal=1.241 rel_kJ_per_mol=5.19
Pb     0.13917018     0.05037584    -0.05741477
O      2.14852358    -0.03251479     1.64297996
H      3.04645607    -0.16935026     1.32436981
H      1.92559519    -0.79222790     2.19357959
O      0.27401742     2.11225241     1.55636564
H      1.02477710     1.89238457     2.12123596
H      0.44993360     2.97707755     1.17340449
O     -1.79066835     0.17560141     1.61673385
H     -1.80153263    -0.51239749     2.28993518
H     -1.60376311     1.00622441     2.07301817
O      0.29907116    -2.19123111     1.27339405
H      0.85745585    -2.69413735     0.66699573
H     -0.50088032    -2.71012731     1.39969068
O      1.20908232     1.64793319    -1.80452790
H      1.02225041     1.47277078    -2.73214519
H      2.12412614     1.93948620    -1.74253283
O     -1.75834434     1.47348956    -1.11250545
H     -2.44914507     1.60430598    -0.45386001
H     -1.47233097     2.34244927    -1.41053600
O     -1.55912819    -1.32898340    -1.46376756
H     -1.95019556    -0.66833926    -2.04821274
H     -2.28283208    -1.68542918    -0.93789693
O      1.25039134    -1.95137913    -1.38581946
H      2.00485118    -1.88335190    -1.97851199
H      0.50673291    -2.29090172    -1.89820173
25
E_Eh=-42.48839966 rel_kcal=1.276 rel_kJ_per_mol=5.34
Pb     0.05065954     0.01600154    -0.08755256
O      2.02600955    -0.21795487     1.59428270
H      1.78106097    -0.75068920     2.35773339
H      2.21005898     0.67147208     1.91857160
O      0.35792914     2.07438931     1.49664949
H      0.22654228     2.97073429     1.17343646
H     -0.28228481     1.92407975     2.20253955
O     -1.60697525     0.01647594     1.89340906
H     -2.53135357     0.01468346     1.62415115
H     -1.44557980    -0.82800920     2.33022282
O     -0.40550298    -2.35997704     0.85901083
H      0.35441328    -2.89678135     0.60829029
H     -1.15454610    -2.69041871     0.34891733
O      1.14288735     1.50509563    -1.94486301
H      1.33868921     1.10954422    -2.80025677
H      1.92134623     2.00386555    -1.67625251
O     -1.76842493     1.57033193    -1.15980905
H     -2.27145128     2.16852537    -0.59865143
H     -1.31655400     2.10839570    -1.81892914
O     -1.69819486    -1.27380406    -1.51888232
H     -1.41054190    -1.65229026    -2.35569380
H     -2.38245927    -0.62527346    -1.72119982
O      1.91530491    -1.65183622    -0.84583709
H      2.59633129    -1.50608941    -0.17815858
H      2.35263602    -1.70047101    -1.70112860
25
E_Eh=-42.48835784 rel_kcal=1.303 rel_kJ_per_mol=5.45
Pb     0.12363232    -0.04346480     0.06421020
O      1.70762927    -0.11069659     2.15852223
H      2.58163081    -0.35544986     1.83439451
H      1.50213381    -0.69705524     2.89306303
O      0.56100425     2.31795459     1.06771280
H      0.99234989     2.17347414     1.91755089
H      1.11992820     2.91668295     0.56192686
O     -1.80361466    -0.46276871     1.74358501
H     -1.68945907    -0.06948684     2.61485284
H     -2.56483949    -0.02927505     1.34002184
O     -0.36512656    -2.58919723     0.45277833
H     -1.12194945    -2.58823039     1.05128370
H      0.29949944    -3.17249778     0.83156857
O      0.29951686     1.18518969    -2.22531480
H     -0.12866961     0.56191594    -2.82468842
H      1.09975511     1.49976558    -2.65609829
O     -1.89385421     1.55886877    -0.27229650
H     -1.69599076     2.30172154     0.31031717
H     -1.80864220     1.89291072    -1.17217843
O     -1.23650055    -1.15233847    -1.85666107
H     -2.17021797    -0.93307543    -1.77423309
H     -1.15832092    -2.10618279    -1.74121711
O      2.52966503    -0.83040177    -0.60815560
H      3.10515277    -0.21096376    -1.06739363
H      2.57358195    -1.66556211    -1.08521663
25
E_Eh=-42.48830619 rel_kcal=1.335 rel_kJ_per_mol=5.59
Pb     0.15874162    -0.13221651     0.19257373
O      2.46540541    -0.30019641     1.43911024
H      2.94222795     0.53574769     1.43351947
H      2.52174593    -0.65553928     2.33195760
O      0.62552733     2.27587870     1.11715283
H     -0.15318842     2.78353729     0.86446642
H      0.78256047     2.44992176     2.05022234
O     -1.70243777    -0.45638565     2.03139833
H     -2.49397724     0.00765816     1.74009415
H     -1.55525650    -0.21777987     2.95265801
O     -0.45256649    -2.64501262     0.67424474
H     -1.21476537    -2.53951973     1.25590459
H      0.16751711    -3.22706252     1.12425673
O      0.90080885     1.40761166    -1.71443225
H      1.52860758     0.93002390    -2.26836634
H      1.36624883     2.16188533    -1.33625033
O     -1.78038802     1.45161689    -0.49837830
H     -1.39359759     1.95619014    -1.22399566
H     -2.43866384     0.87656198    -0.90528463
O     -1.33781949    -1.13427315    -1.62935770
H     -1.48934064    -2.05612299    -1.39119341
H     -0.97117914    -1.11745302    -2.51929609
O      1.95093419    -1.27737146    -1.28972252
H      1.74460355    -2.16987596    -1.58443356
H      2.74470303    -1.33398828    -0.74564035
25
E_Eh=-42.48824555 rel_kcal=1.373 rel_kJ_per_mol=5.74
Pb    -0.03906720    -0.17554893    -0.10485704
O      2.07132967    -0.04056030     1.38615027
H      2.82249372    -0.36272876     0.87593784
H      1.87338310    -0.72433175     2.03778451
O      0.05780450     1.96265446     1.35440386
H      0.85725512     1.83060299     1.87830824
H      0.14622264     2.81083644     0.90807317
O     -1.94789673    -0.04953069     1.68267380
H     -1.71325899     0.73268128     2.19600790
H     -2.86778240     0.04788706     1.41780079
O      0.05620719    -2.06454168     1.70100607
H      0.07288450    -3.00160651     1.48374820
H     -0.71762942    -1.90425177     2.25383104
O      1.41386493     1.10903448    -1.82575592
H      0.79482514     1.58957113    -2.38807793
H      2.04189811     1.74853114    -1.47508276
O     -1.41548190     1.54075871    -1.53059546
H     -2.05818877     1.01429037    -2.01816178
H     -1.90169464     2.22866066    -1.06552734
O     -1.73886954    -1.37482230    -1.71108860
H     -2.32525873    -2.04723163    -1.34963072
H     -1.38176749    -1.72066944    -2.53505841
O      1.83372138    -1.61327521    -1.17903160
H      2.18911638    -1.07805040    -1.89760631
H      1.77446779    -2.52233612    -1.48650128
25
E_Eh=-42.48804043 rel_kcal=1.502 rel_kJ_per_mol=6.28
Pb     0.12489894    -0.01235917    -0.06664496
O      1.36366271    -0.55918673     2.12853245
H      2.23910164    -0.24002517     2.36684065
H      0.74984686    -0.28687564     2.82069529
O      1.06656263     2.31539599     0.62379037
H      1.74514277     2.36136256     1.30442457
H      0.37050110     2.92863198     0.87981928
O     -1.41819822     0.10611612     2.00148992
H     -2.07057178     0.78936891     1.80873743
H     -1.90063161    -0.71893642     2.11823676
O     -0.27613329    -2.50092872     0.58960648
H      0.08536193    -2.61235677     1.47605742
H      0.30708370    -2.99231504    -0.00058249
O      1.40960135     1.08562239    -2.08347066
H      1.88256880     1.85101831    -1.73817913
H      0.93107095     1.37682165    -2.86579132
O     -2.00012329     1.48180627    -0.45560241
H     -1.93781887     2.29314635    -0.96856984
H     -2.58440551     0.88589860    -0.93988928
O     -1.71655910    -1.15322899    -1.52008394
H     -1.94250717    -1.94324541    -1.01542174
H     -1.46469263    -1.44650825    -2.40181369
O      1.97326558    -1.57763245    -1.03608974
H      2.77458543    -1.62863894    -0.50517479
H      2.22867035    -1.22857977    -1.89712184
25
E_Eh=-42.48740205 rel_kcal=1.902 rel_kJ_per_mol=7.96
Pb    -0.04943146    -0.11200510     0.15631903
O      2.17485175    -0.46156128     1.52073047
H      2.46821638     0.45204942     1.62064612
H      2.14228802    -0.83714281     2.40633346
O      0.96808265     2.08702495     1.15508379
H      1.26693247     2.52023450     0.34585393
H      0.37208816     2.69797483     1.59926072
O     -1.80692900     0.19275147     2.04004106
H     -2.61572884    -0.32799686     2.03828614
H     -1.55702931     0.34474009     2.95659890
O     -0.38791840    -2.63170990     0.85363231
H     -0.93009757    -2.81780591     1.62601423
H      0.42998662    -3.12748843     0.95862957
O      0.84265378     1.53450291    -1.61138747
H      0.08114071     1.89063885    -2.08350124
H      1.40984283     1.08626524    -2.24833836
O     -1.96509357     1.28921489    -0.90078239
H     -2.51093254     0.66801925    -1.39639301
H     -2.53632501     1.74398080    -0.27406768
O     -1.40359899    -1.44613015    -1.60230131
H     -1.55423291    -2.32333497    -1.23157608
H     -0.97263283    -1.56435160    -2.45470970
O      1.81251186    -1.19257996    -1.27335918
H      1.73031608    -2.12401035    -1.50139576
H      2.59837539    -1.10530593    -0.72153042
25
E_Eh=-42.48686135 rel_kcal=2.242 rel_kJ_per_mol=9.38
Pb     0.08284232     0.00023631     0.06679640
O      2.12006934    -0.27230196     1.64742052
H      1.97585830    -0.80091421     2.43846905
H      2.63622256     0.49927604     1.90178557
O      0.30421713     2.49782642     0.79344293
H      0.49071028     2.84416205     1.67092115
H      0.89377893     2.93340168     0.16879862
O     -1.41351934    -0.13674980     2.17132291
H     -1.61185681    -1.07911056     2.23502773
H     -1.12062997     0.15926403     3.03869259
O     -0.68834405    -2.41196251     0.69832294
H      0.07310163    -2.98420364     0.55020833
H     -1.31893410    -2.61008915    -0.00435944
O      1.24123420     1.51086342    -1.72729097
H      2.10158571     1.26655859    -2.08279835
H      0.69655473     1.80571946    -2.46368494
O     -2.17554949     1.26877505    -0.22961817
H     -2.64599800     1.04290745     0.58190989
H     -1.98054829     2.21113930    -0.17806192
O     -1.50650989    -1.05085471    -1.70662321
H     -1.27267519    -1.14044623    -2.63577345
H     -2.28434464    -0.48225126    -1.65607024
O      1.76194368    -1.83952332    -0.74987398
H      2.57842634    -1.74032287    -0.24887237
H      1.99357236    -2.04937757    -1.65931135
25
E_Eh=-42.48682055 rel_kcal=2.267 rel_kJ_per_mol=9.49
Pb     0.17902884    -0.01647705     0.20496771
O      1.92017969    -0.10033708     2.20997792
H      2.67478059    -0.69577076     2.17767465
H      1.56935307    -0.14216727     3.10488950
O      1.27776555     2.32264218     0.64443635
H      0.76759842     2.90665283     1.21452499
H      2.12973356     2.18244520     1.07216639
O     -1.64773688    -0.46989553     2.02814985
H     -1.54306424    -0.03585325     2.88072951
H     -2.45907976    -0.11890498     1.64549502
O     -0.32614510    -2.57315316     0.51579866
H     -1.09116700    -2.53313478     1.10145488
H      0.31994815    -3.14256318     0.94529935
O      0.56142052     1.30467899    -1.98692313
H      1.20389495     0.81406354    -2.51152151
H      0.98752984     2.12607156    -1.71795664
O     -1.84829688     1.56786806    -0.00495921
H     -1.59980158     2.39128878    -0.43672010
H     -2.39906391     1.08763775    -0.63551202
O     -1.54494597    -0.81049836    -1.50691593
H     -1.63453972    -1.76939240    -1.49028644
H     -1.28648264    -0.54870079    -2.39716552
O      1.89793250    -1.17883296    -1.36778154
H      1.60553119    -2.05017335    -1.65368478
H      2.82317725    -1.25257294    -1.11331618
25
E_Eh=-42.48679980 rel_kcal=2.280 rel_kJ_per_mol=9.54
Pb    -0.00756758     0.04380240    -0.07267767
O      1.83696985    -0.31888966     1.65462082
H      1.57588661    -0.98019369     2.30440085
H      2.04193591     0.49516247     2.12730694
O      0.59971258     2.28826230     1.11175957
H      1.28522134     2.85130956     0.74036957
H     -0.23531066     2.76071098     1.00618368
O     -1.51012408     0.12988425     2.01316805
H     -1.65984857    -0.77066113     2.32190786
H     -1.11566152     0.62440616     2.73906083
O     -0.38869476    -2.32559565     0.91563746
H      0.37724632    -2.82826962     0.61538125
H     -1.14102339    -2.66309263     0.41605108
O      1.30513681     1.05080868    -2.11678417
H      2.07190766     1.60336868    -1.93778670
H      0.82666214     1.45472456    -2.84758153
O     -1.90479701     1.89650545    -0.18746985
H     -2.43733763     2.16722158    -0.94117703
H     -2.50429512     1.63520026     0.52077763
O     -1.72597009    -1.35619897    -1.46159851
H     -1.42741971    -1.67462025    -2.31932934
H     -2.63178107    -1.04864804    -1.56406614
O      1.81327700    -1.62481254    -0.91179293
H      2.55983839    -1.51846688    -0.31077000
H      2.12552125    -1.40408954    -1.79507883
25
E_Eh=-42.48675997 rel_kcal=2.305 rel_kJ_per_mol=9.65
Pb     0.05206286    -0.18056909    -0.07281266
O      1.03324590    -0.25196746     2.32342223
H      1.99264375    -0.28157637     2.38801864
H      0.70777427    -1.09148246     2.66925248
O      1.32173438     2.03709767     0.31250553
H      0.59914283     2.67206240     0.22899780
H      1.70058695     2.15804419     1.18901678
O     -1.87169280    -0.09853047     1.63846272
H     -1.97751756    -0.99490253     1.97537892
H     -1.60049738     0.44552217     2.38567724
O     -0.14980735    -2.57054157     1.03661231
H      0.68080650    -3.02903250     0.87010454
H     -0.82685386    -3.03256638     0.53024511
O      0.58778574     0.96212334    -2.35865512
H      0.88554636     0.57718960    -3.18825820
H      1.19618177     1.67393039    -2.13279487
O     -1.43207246     1.92693516    -0.40842669
H     -1.60400748     2.10140092    -1.33958286
H     -2.27782489     1.86213722     0.04706109
O     -1.84847723    -1.56967974    -1.15431106
H     -2.70303723    -1.30065153    -0.80144977
H     -1.93173230    -1.61427138    -2.11211285
O      2.08426974    -1.68516413    -0.76112598
H      1.99796392    -2.18299441    -1.58030720
H      2.95101822    -1.26659937    -0.77176815
25
E_Eh=-42.48672214 rel_kcal=2.329 rel_kJ_per_mol=9.74
Pb    -0.02127123    -0.05627165     0.09684310
O      1.93133939     0.06973907     1.84279577
H      2.71014377    -0.20512494     1.34531842
H      1.90558104    -0.46214910     2.64462446
O      0.48818801     2.39502251     0.83131309
H      1.03707559     2.37722565     1.62264363
H      1.03691669     2.75039228     0.12222264
O     -2.07250917     0.00774229     1.71444261
H     -2.59525096    -0.78989741     1.84283973
H     -1.94605951     0.41580735     2.57698160
O     -0.40135594    -2.63436910     0.50722513
H     -1.02291214    -2.91212834    -0.17488580
H     -0.67889593    -3.03515502     1.33631157
O      0.94390215     1.33273911    -1.81105666
H      0.25913673     1.67136362    -2.39728027
H      1.68887820     1.04595107    -2.34796052
O     -1.90616950     1.56040697    -0.70246957
H     -2.63027433     1.38162505    -0.09149965
H     -1.56713602     2.42974251    -0.46110347
O     -1.38256343    -1.12178249    -1.82389151
H     -0.98337581    -1.23724033    -2.69238144
H     -2.14877265    -0.54881679    -1.94027908
O      2.00928256    -1.52840628    -0.60390678
H      2.32786095    -1.62115767    -1.50663151
H      1.72264409    -2.40271640    -0.31307055
