19
E_Eh=-32.29152179 rel_kcal=0.000 rel_kJ_per_mol=0.00
Pb     0.00054876    -0.04461465    -0.01645497
O      2.49915629     0.18097183     0.03244303
H      3.08416632    -0.13935605    -0.66304051
H      2.94803012     0.06843891     0.87781721
O     -2.50185457    -0.23606300    -0.05627321
H     -3.08319059     0.08080650     0.64376844
H     -2.95538974    -0.12093939    -0.89884585
O      0.04127038     2.45736577     0.06344808
H      0.88879354     2.89352594    -0.07751965
H     -0.65558722     3.04287556    -0.25309731
O     -0.02378016    -2.55060489    -0.11544659
H      0.68032593    -3.12894051     0.19816048
H     -0.86541023    -2.99889907     0.02289157
O      0.16107376     0.05971526     2.48406111
H     -0.14640059    -0.63104682     3.08144699
H      0.02993916     0.91119367     2.91582508
O     -0.13917883    -0.15479183    -2.51657797
H      0.16707684     0.53263170    -3.11838177
H     -0.01177009    -1.00860970    -2.94463343
19
E_Eh=-32.29140945 rel_kcal=0.070 rel_kJ_per_mol=0.29
Pb    -0.07271744    -0.08565273     0.05336612
O      2.42018753    -0.24619416    -0.18497597
H      2.83146069    -1.10966712    -0.06525777
H      3.03235139     0.42540796     0.13639920
O     -2.57449567     0.09772235     0.16519555
H     -3.17792066    -0.54810643    -0.21899707
H     -2.97414987     0.97052291     0.07979109
O     -0.07987706     2.40406564     0.20013965
H      0.07189832     2.79971161     1.06548249
H      0.24899530     3.01091759    -0.47204505
O     -0.03719000    -2.59966946    -0.03601671
H     -0.36778023    -3.18626353     0.65325552
H     -0.17929648    -3.02649959    -0.88814108
O     -0.07726252     0.11223071     2.56281844
H      0.60343964    -0.26328265     3.13234367
H     -0.92459383     0.02654344     3.01378057
O      0.01813186    -0.10364717    -2.44529261
H      0.88811431    -0.01918717    -2.85119014
H     -0.63038488     0.29681651    -3.03473679
19
E_Eh=-32.29135250 rel_kcal=0.106 rel_kJ_per_mol=0.44
Pb    -0.03230324    -0.08108013     0.01745464
O      2.37336348     0.29974640    -0.65821412
H      2.95348901    -0.46819982    -0.70554981
H      2.90044217     1.05112331    -0.36368267
O     -2.47812724    -0.24262451     0.51766925
H     -3.08919177    -0.86618766     0.10937975
H     -2.93698863     0.59798670     0.62634564
O     -0.56935218     2.33394583     0.47433556
H     -0.45351955     3.04882258    -0.16186616
H     -0.34458059     2.67324236     1.34792387
O      0.25069575    -2.54273910    -0.38901939
H      0.02815867    -3.24449760     0.23309469
H      0.07516752    -2.86521176    -1.28003156
O      0.38336134    -0.23005907     2.49698165
H      1.19792913    -0.55902166     2.89369072
H     -0.35311546    -0.51724664     3.04806248
O     -0.33005709     0.01951816    -2.46512940
H     -1.11307596     0.35240705    -2.91775708
H      0.44450489     0.27408709    -2.97910876
19
E_Eh=-32.29134713 rel_kcal=0.110 rel_kJ_per_mol=0.46
Pb    -0.03850759     0.04076356    -0.02038919
O      2.45028982     0.00125459     0.15236918
H      3.04484807    -0.43555572    -0.46751528
H      2.82317264    -0.08069447     1.03742427
O     -2.54383713    -0.15406286     0.13480693
H     -2.92420133    -1.03490864     0.22597256
H     -3.12125643     0.47113852     0.58720913
O      0.20201549     2.54473849    -0.14823529
H      1.08729486     2.91730566    -0.22884523
H     -0.41509199     3.13713190    -0.59236033
O     -0.06488117    -2.43779044    -0.29201928
H     -0.02364716    -2.75868211    -1.19990011
H      0.38199480    -3.07704278     0.27413959
O      0.19874075     0.17408537     2.48327589
H     -0.13415940    -0.50092099     3.08520317
H      0.07734645     1.03373196     2.90150806
O     -0.25440122    -0.15097971    -2.52182209
H      0.40558660     0.20307209    -3.12848090
H     -1.12495579    -0.00170395    -2.90776058
19
E_Eh=-32.29131525 rel_kcal=0.130 rel_kJ_per_mol=0.54
Pb    -0.00473480     0.02235149     0.06435930
O      2.48094170     0.12132717    -0.35784880
H      3.08104762    -0.56557309    -0.04565101
H      2.91267611     0.97296592    -0.22752531
O     -2.48582658    -0.29136862     0.13458552
H     -3.12902952     0.28734079    -0.28944240
H     -2.81528635    -1.19550853     0.08237703
O     -0.17240119     2.52566778    -0.01221066
H     -0.26279164     2.91877588    -0.88762265
H     -0.67534449     3.06256500     0.61072706
O     -0.09516474    -2.48732118     0.09472305
H      0.20945191    -3.05889551    -0.61913397
H      0.09954256    -2.92570950     0.93018828
O      0.18533342    -0.09475621     2.58582702
H     -0.63043234    -0.06448721     3.09785273
H      0.86777741     0.36427684     3.08842929
O      0.06686528     0.29046830    -2.41496333
H      0.94133049     0.21621524    -2.81395793
H     -0.57395487    -0.09833455    -3.02071323
19
E_Eh=-32.29125105 rel_kcal=0.170 rel_kJ_per_mol=0.71
Pb    -0.06150817     0.09390890     0.18604902
O      2.41404481     0.34874481    -0.10368476
H      3.08555807    -0.07742287     0.44074430
H      2.70732989     0.31324712    -1.02127138
O     -2.55943341    -0.18182911     0.28710337
H     -2.99964206    -0.06095025     1.13562908
H     -3.15812817     0.11780602    -0.40626282
O     -0.20040629     2.60223333     0.03505951
H     -0.86136347     3.13874174     0.48717070
H      0.63452257     3.08330013     0.04681814
O     -0.21831928    -2.35332680    -0.33023067
H      0.49173949    -2.99152961    -0.19952236
H     -1.05663548    -2.79113739    -0.14433899
O      0.07272000    -0.10984050     2.71596895
H      0.14831226    -0.95280922     3.17639107
H      0.48164688     0.56596905     3.26765634
O      0.12649143     0.09876823    -2.28882430
H     -0.10459917    -0.72296134    -2.73704290
H     -0.20291859     0.83574959    -2.81545169
19
E_Eh=-32.29124370 rel_kcal=0.175 rel_kJ_per_mol=0.73
Pb    -0.10435248    -0.00367132     0.04753024
O      2.33147618     0.05277228    -0.51184800
H      2.52252041    -0.03300777    -1.45306146
H      2.91245965    -0.55424579    -0.03905500
O     -2.63194085    -0.04499141     0.25516356
H     -3.16058367    -0.84594544     0.16916172
H     -3.18835599     0.70686758     0.02493827
O      0.31287455     2.45774551     0.14978961
H     -0.14762810     3.07710644     0.72721996
H      1.23111087     2.74169581     0.07401177
O      0.45449728    -2.42929297     0.33036060
H      0.35816746    -2.78928231     1.21896911
H      0.27836789    -3.13429643    -0.30240820
O     -0.01655356    -0.19984561     2.55321991
H     -0.82159746    -0.05072142     3.06192494
H      0.72916978     0.12078639     3.07283679
O     -0.34551849     0.13437687    -2.45726226
H     -0.74992831    -0.53717018    -3.01789173
H     -0.53354534     0.99738957    -2.84224621
19
E_Eh=-32.29121396 rel_kcal=0.193 rel_kJ_per_mol=0.81
Pb     0.02077470     0.05424426    -0.14255681
O      2.50454718    -0.00954051    -0.44785495
H      3.02483114     0.01164882     0.36319481
H      2.99785456     0.45621001    -1.13225755
O     -2.46418872     0.28061269     0.21109168
H     -3.07100091     0.16470609    -0.52861301
H     -2.90882022    -0.02044564     1.01115445
O     -0.07483366     2.48610417     0.44117008
H      0.60232109     3.14787081     0.26261064
H     -0.93322579     2.92343928     0.45257512
O      0.06878202    -2.44798072     0.06858021
H     -0.68248227    -3.01423987    -0.14095305
H      0.87085542    -2.89300325    -0.22663006
O      0.67849311    -0.18810059     2.23157370
H      0.50457853     0.51690141     2.86523954
H      0.54697749    -1.03598679     2.67064478
O     -0.37241315     0.11614017    -2.64744421
H     -0.41124593     0.93612224    -3.15152913
H     -0.12646691    -0.59416621    -3.25005745
19
E_Eh=-32.29121018 rel_kcal=0.196 rel_kJ_per_mol=0.82
Pb     0.02739401    -0.04011579    -0.08492369
O      2.54273411    -0.08478147    -0.21809208
H      2.97296609    -0.94747711    -0.20750011
H      3.12523921     0.54338061     0.22450399
O     -2.45163747    -0.12031072     0.24085209
H     -3.05399751    -0.61988159    -0.32202048
H     -2.75544637    -0.20516352     1.15180256
O     -0.14928905     2.45869152     0.16784763
H      0.46519714     3.06067909    -0.26698121
H     -1.02871965     2.85156182     0.12726928
O      0.20401062    -2.53845922    -0.23057080
H     -0.12160570    -3.13697475     0.45068384
H      0.05416746    -2.95227656    -1.08788916
O     -0.03339627     0.03620185     2.42140627
H      0.06713389     0.91168554     2.81184615
H      0.42759711    -0.59504077     2.98581290
O     -0.09182717    -0.00228636    -2.60568150
H      0.73536464     0.08241138    -3.09280225
H     -0.77723786     0.45876806    -3.10278312
19
E_Eh=-32.29117428 rel_kcal=0.218 rel_kJ_per_mol=0.91
Pb     0.08660811    -0.00798760    -0.08266404
O      2.60363139    -0.11700371    -0.24991171
H      3.10351026    -0.24208088    -1.06395135
H      3.18412958    -0.31380967     0.49312432
O     -2.38294021    -0.30888165     0.13860530
H     -2.97299790     0.17715277    -0.44847694
H     -2.66983576    -1.22944641     0.14726261
O      0.24231318     2.46702498     0.39142828
H     -0.50276296     3.07252229     0.30887416
H      1.04449434     2.94474147     0.15368000
O      0.02961907    -2.46066107     0.38581822
H      0.49696919    -3.11747925    -0.14300783
H      0.14351303    -2.68931330     1.31550038
O     -0.16707111    -0.00930166     2.39522419
H     -1.08448685     0.06562331     2.68450153
H      0.34535291     0.64756792     2.88031013
O     -0.48293699     0.08488943    -2.55884171
H     -0.24942805     0.82514191    -3.12945390
H     -0.55039871    -0.70445820    -3.10689664
19
E_Eh=-32.29115572 rel_kcal=0.230 rel_kJ_per_mol=0.96
Pb    -0.01301638     0.03544627     0.01188456
O      2.48941933    -0.00874445    -0.10735677
H      3.01789367     0.68699303    -0.51445110
H      2.89029689    -0.85621986    -0.33085840
O     -2.52194117     0.05018743     0.23130746
H     -3.00008399    -0.46920125     0.88752851
H     -3.03124961     0.03607997    -0.58676952
O     -0.13128122     2.54293889     0.12065722
H     -0.98267865     2.93271393     0.34886219
H      0.55942782     3.08297597     0.52108635
O      0.19617609    -2.46674001    -0.19260508
H     -0.28008423    -2.98607926    -0.85036853
H      0.21394154    -2.97171135     0.62815279
O      0.39271798    -0.26342743     2.46774521
H      1.29917817    -0.16129737     2.77920446
H     -0.19805299     0.06118806     3.15634071
O     -0.34336964     0.41902915    -2.44960412
H     -0.33740909     1.33514654    -2.74926452
H      0.07255381    -0.11869251    -3.13278521
19
E_Eh=-32.29113329 rel_kcal=0.244 rel_kJ_per_mol=1.02
Pb    -0.10949029    -0.01938131     0.00379142
O      2.37905875    -0.21030845    -0.24057296
H      2.72796955    -1.10644659    -0.16949272
H      2.92310190     0.35862310     0.31597584
O     -2.62841165    -0.11914316     0.27470617
H     -3.22166360    -0.44333905    -0.41147534
H     -3.05359157    -0.25990976     1.12763995
O     -0.34953886     2.46840898     0.27118619
H      0.28464435     3.07974107    -0.11957065
H     -1.22721024     2.86000251     0.19554686
O     -0.05162024    -2.53358727    -0.14064812
H     -0.35974184    -3.14109884     0.54092160
H     -0.19954320    -2.94637778    -0.99853436
O      0.54055955     0.31375864     2.38905107
H      0.49455122    -0.33801752     3.09726996
H      0.36406076     1.18416180     2.76294415
O      0.11618319     0.15584051    -2.48364693
H     -0.45474179     0.66068023    -3.07397506
H      1.01825434     0.20391496    -2.82007540
19
E_Eh=-32.29108170 rel_kcal=0.276 rel_kJ_per_mol=1.16
Pb     0.09470618     0.07208532     0.01075859
O      2.62240873    -0.22939528    -0.02821358
H      3.20441427     0.10118651     0.66437296
H      3.13960671    -0.31765273    -0.83611342
O     -2.33515615    -0.35001619     0.32214534
H     -2.55152212    -1.28690812     0.24050031
H     -2.71780032    -0.03520018     1.14954064
O     -0.10432767     2.58004898     0.04698472
H     -0.95526062     3.01409175    -0.07954550
H      0.58667485     3.18110610    -0.25217002
O     -0.11506928    -2.41093807    -0.31312456
H     -0.04621362    -2.70657213    -1.22796542
H      0.38860605    -3.02443143     0.23346361
O     -0.08589490     0.24881607     2.50946313
H      0.20348589    -0.44317524     3.11437073
H      0.08296565     1.10200389     2.92407137
O     -0.49393893     0.09611666    -2.42195933
H     -1.43111001     0.16867231    -2.63488494
H      0.00411194     0.57235331    -3.09586204
19
E_Eh=-32.29103741 rel_kcal=0.304 rel_kJ_per_mol=1.27
Pb     0.03386217    -0.01464458    -0.08806611
O      2.55669304    -0.03742594     0.07149123
H      3.09564995     0.75704957     0.15173287
H      3.12058964    -0.74732305    -0.25395752
O     -2.38599420    -0.31496061     0.41549436
H     -3.01762817     0.39775196     0.26735641
H     -2.80383115    -1.14836944     0.17006118
O     -0.29229162     2.46008340     0.09620021
H     -0.26060776     2.83888351     0.98183960
H      0.02368783     3.12377047    -0.52696708
O     -0.14022299    -2.51611376    -0.25099706
H      0.14193984    -3.12507240     0.44062352
H     -0.02264572    -2.95093562    -1.10326795
O     -0.01565838     0.17194680     2.39139645
H      0.72116727    -0.10415264     2.94774265
H     -0.83620884    -0.11157187     2.81071434
O     -0.20415025     0.07230922    -2.60681104
H      0.50489534     0.36850219    -3.18758684
H     -1.04245166     0.24453825    -3.04913103
19
E_Eh=-32.29091508 rel_kcal=0.381 rel_kJ_per_mol=1.59
Pb    -0.04652888    -0.15210225    -0.02151135
O      2.47430185    -0.01745591    -0.14913743
H      2.93823635     0.74010997    -0.52243861
H      2.98426382    -0.80859129    -0.35540323
O     -2.52390291     0.14403678    -0.00456303
H     -3.15217227    -0.37549715     0.50949849
H     -2.76652529     1.07357575     0.07808620
O     -0.40590133     2.32129415     0.07757254
H     -0.22602675     2.87134888    -0.69325013
H     -0.08092997     2.78272342     0.85942290
O     -0.13576104    -2.67378689     0.16375052
H      0.04616617    -3.14937758     0.98161100
H     -0.71944438    -3.22040474    -0.37370213
O      0.34038274     0.17154872     2.42326092
H      1.23331561     0.06693191     2.76912232
H     -0.28476839     0.01100324     3.13860174
O     -0.36982241    -0.09494758    -2.51190198
H      0.18558654    -0.55468267    -3.15133680
H     -1.28107780    -0.13474891    -2.82282580
19
E_Eh=-32.29089913 rel_kcal=0.391 rel_kJ_per_mol=1.63
Pb     0.06255681    -0.03614063    -0.03789604
O      2.59051804    -0.09904709     0.04542106
H      3.11708087    -0.88437217    -0.13861331
H      3.13816216     0.67445062    -0.12681439
O     -2.42569433    -0.11317790     0.27403806
H     -2.93729111    -0.68695748    -0.30757488
H     -2.72922001    -0.26856658     1.17592589
O     -0.46722679     2.38854876     0.30907325
H      0.02717318     3.08860375    -0.13236906
H     -1.40485837     2.60646867     0.25354043
O     -0.25914086    -2.53281667     0.04382634
H     -0.12557408    -3.14090852    -0.69174350
H     -0.16964209    -3.02827531     0.86500904
O      0.31690587     0.23254109     2.43228932
H      0.17692102     1.13930388     2.73038141
H      1.11890599    -0.09262372     2.85752029
O      0.11259664     0.37288803    -2.53320321
H      0.74622575    -0.03749648    -3.13102456
H     -0.64933585     0.65241772    -3.05216307
19
E_Eh=-32.29067006 rel_kcal=0.534 rel_kJ_per_mol=2.24
Pb     0.06349114     0.10767066     0.00897746
O      2.59324417     0.03196941    -0.02554043
H      3.07394033    -0.74290768    -0.33634620
H      3.13288097     0.80769438    -0.21423151
O     -2.39074411    -0.30830964    -0.19836905
H     -2.62866590    -1.23688349    -0.09173512
H     -3.05388308     0.22234996     0.25725735
O     -0.33452829     2.59571074     0.25837242
H      0.23076580     3.19158362     0.76138994
H     -0.84271668     3.12494764    -0.36597229
O     -0.16942452    -2.36987912     0.12044351
H      0.12229448    -2.93022603    -0.60731028
H      0.05816398    -2.80593102     0.94967241
O      0.27271910    -0.19352369     2.49423280
H      1.13301670    -0.06991254     2.91078652
H     -0.40603635     0.09875267     3.11254707
O     -0.09366454     0.01016719    -2.49298929
H     -0.98814131    -0.04957296    -2.84620833
H      0.44262652     0.51553414    -3.11461770
