34
E_Eh=-63.68344155 rel_kcal=0.000 rel_kJ_per_mol=0.00
Pb    -5.42986399     0.30662520    -0.87801178
C      2.52927184    -3.00906616     1.65024607
O      1.39292744    -2.29922938     1.16369053
C      1.61338656    -1.12647332     0.56775693
O      2.72717667    -0.65258263     0.42918721
C      0.37411952    -0.47870072     0.09892752
C     -0.86968644    -1.07055602     0.29728896
C     -2.01672389    -0.43816371    -0.15520601
O     -3.25601040    -0.98014722     0.01444032
C     -1.92001480     0.79257501    -0.80767171
O     -3.03905407     1.42435755    -1.25717930
C     -0.66290800     1.38216198    -1.00620342
O     -0.67492306     2.57349310    -1.65480184
C      0.47858328     0.74814167    -0.55334944
H      3.22393454    -3.21416890     0.83444865
H      2.14370965    -3.93161811     2.07245275
H      3.04562067    -2.41954422     2.40913532
H     -0.92127234    -2.01983052     0.80372286
H     -3.19156816    -1.82460310     0.48923893
H     -2.76718007     2.25374716    -1.69250022
H      0.21644056     2.92834539    -1.77011257
H      1.45818646     1.17822596    -0.69158708
O     -7.00641499    -1.56706222    -0.95240512
H     -7.78437209    -1.44847577    -1.51141092
H     -6.69317266    -2.47146826    -1.07656050
O     -6.86159831     2.26740317    -1.21851575
H     -6.52904349     3.15592923    -1.04125061
H     -7.76404728     2.21956426    -0.87908064
O     -6.35574509     0.48144694     1.42484554
H     -6.92255626    -0.22605983     1.75403415
H     -5.83678536     0.82434756     2.16137102
O     -5.78075520     0.09846434    -3.33042078
H     -6.16705293     0.85233240    -3.79146942
H     -5.11494857    -0.29936404    -3.90302326
34
E_Eh=-63.68317738 rel_kcal=0.166 rel_kJ_per_mol=0.69
Pb    -5.42560963     0.31047117    -0.84450265
C      3.90533488    -0.94176013     1.06791602
O      2.69781521    -0.36856013     0.57324675
C      1.56791144    -1.03998485     0.80092619
O      1.53516998    -2.09796025     1.40397047
C      0.37558062    -0.36763148     0.25221496
C     -0.86353909    -0.97218424     0.44286441
C     -2.01372034    -0.38035023    -0.05231264
O     -3.24716625    -0.93732569     0.11129184
C     -1.92144426     0.82895426    -0.74356404
O     -3.03880614     1.42898702    -1.23799036
C     -0.66920453     1.43272837    -0.93384213
O     -0.68954191     2.60260021    -1.62010789
C      0.47666935     0.83813401    -0.43857313
H      3.82126485    -1.13114048     2.13909581
H      4.68581654    -0.21586847     0.86214418
H      4.10912173    -1.88478625     0.55857687
H     -0.89444461    -1.90527940     0.98315087
H     -3.17832672    -1.76554990     0.61271149
H     -2.76747255     2.24720080    -1.69494160
H      0.19646619     2.97483661    -1.72347463
H      1.44377466     1.29194371    -0.57732526
O     -6.99525764    -1.57477779    -0.92178224
H     -7.75971614    -1.46440236    -1.50081680
H     -6.67817728    -2.48028229    -1.02645255
O     -6.83978497     2.27634489    -1.21671985
H     -6.50587340     3.16624049    -1.04851057
H     -7.74371212     2.23376502    -0.88049589
O     -6.45988876     0.49141743     1.40876245
H     -7.02548249    -0.22829933     1.71254309
H     -5.97730494     0.84056028     2.16654068
O     -5.78559346     0.08709075    -3.29316248
H     -6.16085982     0.84388389    -3.75886614
H     -5.12075049    -0.31952599    -3.86080386
