33
E_Eh=-63.49989763 rel_kcal=0.000 rel_kJ_per_mol=0.00
Pb    -5.40909736     0.11222218    -0.55519769
C      3.92312018    -0.55373747     0.51826810
O      2.63441340    -0.09246807     0.12218754
C      1.57843851    -0.80149796     0.54965616
O      1.70854176    -1.79776401     1.24880002
C      0.29820908    -0.26663566     0.10091471
C     -0.87072378    -0.92869993     0.48489042
C     -2.10104297    -0.45936231     0.08312155
O     -3.28009969    -1.07815557     0.44354388
C     -2.21089353     0.69162916    -0.72130436
O     -3.35018523     1.18321035    -1.13962504
C     -1.01113279     1.34849408    -1.09598863
O     -1.12251348     2.46287879    -1.87020865
C      0.21824528     0.88073646    -0.69503731
H      3.99584279    -0.57731284     1.60686726
H      4.63023351     0.15333404     0.09579125
H      4.09742091    -1.55918212     0.13146952
H     -0.77443517    -1.81072937     1.10011566
H     -3.09809904    -1.85759425     0.99043662
H     -2.07987650     2.59953203    -2.01624791
H      1.11168961     1.40108949    -0.99695607
O     -6.70629268    -2.15188082    -0.47997092
H     -6.43107837    -2.82585164    -1.11104911
H     -7.66843716    -2.09343128    -0.52162374
O     -6.79734750     2.10360610    -1.14393016
H     -6.29662941     2.91794243    -1.27202699
H     -7.52008364     2.29513387    -0.53232579
O     -6.03219166     1.06698304     1.75187838
H     -6.43298682     0.45285184     2.37895754
H     -5.35429882     1.56634711     2.22047654
O     -5.77241965    -0.21543378    -3.03459025
H     -6.48651423     0.31666139    -3.40918653
H     -4.98195686    -0.05823142    -3.56218056
33
E_Eh=-63.49982758 rel_kcal=0.044 rel_kJ_per_mol=0.18
Pb    -5.37706817     0.29613362    -0.47612556
C      3.95093687    -0.79845829     0.23568768
O      2.67080709    -0.31603029    -0.16330103
C      1.60074851    -0.93599047     0.35725422
O      1.71220937    -1.87391052     1.13580331
C      0.32936036    -0.37989303    -0.09114359
C     -0.85164115    -0.94108791     0.40120822
C     -2.07476640    -0.44255607     0.01295009
O     -3.26440791    -0.95591340     0.48552103
C     -2.16532374     0.63569109    -0.88889842
O     -3.29817453     1.15026287    -1.29760477
C     -0.95358218     1.18938146    -1.37473511
O     -1.04328771     2.23527003    -2.24185894
C      0.26880419     0.69410208    -0.98484526
H      4.05131471    -0.74367955     1.32101565
H      4.67350716    -0.15426100    -0.25551648
H      4.07583664    -1.83621005    -0.07791993
H     -0.76978929    -1.76843139     1.09002499
H     -3.09769270    -1.70589884     1.07695724
H     -1.99717535     2.41685267    -2.35568758
H      1.17142630     1.13778334    -1.37035518
O     -6.67262213    -1.95650668    -0.41622688
H     -7.63493729    -1.88550293    -0.43024262
H     -6.42230486    -2.60469865    -1.08388231
O     -6.64197335     2.40110438    -0.99134986
H     -6.09592717     3.18485512    -1.12598698
H     -7.33403949     2.63047086    -0.35808546
O     -5.87175825     1.27096996     1.87147450
H     -6.31223913     0.68245299     2.49656868
H     -5.15192122     1.71092334     2.33703982
O     -6.00648689     0.03947461    -2.90158769
H     -6.68339904     0.66454330    -3.19236819
H     -5.24561067     0.14070682    -3.48394363
33
E_Eh=-63.49980362 rel_kcal=0.059 rel_kJ_per_mol=0.25
Pb    -5.25504747    -0.12580040    -0.99660741
C      3.96846533    -0.21081840     0.90772695
O      2.63790203     0.24183065     0.67289964
C      1.71917131    -0.69522492     0.39273377
O      2.00397202    -1.88451916     0.33978491
C      0.38489185    -0.15287392     0.16549245
C     -0.65132369    -1.04094787    -0.13395244
C     -1.92668340    -0.57352765    -0.35837724
O     -2.97779699    -1.41376838    -0.66246191
C     -2.21610477     0.80326880    -0.29058558
O     -3.40670334     1.30974477    -0.49169137
C     -1.14912833     1.68531099     0.01784648
O     -1.43697736     3.01424867     0.08641705
C      0.12536155     1.21960886     0.24024731
H      3.98364310    -0.91899433     1.73787401
H      4.54358930     0.67902608     1.14405788
H      4.36007732    -0.70405263     0.01647631
H     -0.41755630    -2.09396768    -0.18187095
H     -2.68004711    -2.33647150    -0.67520284
H     -2.39266974     3.09557780    -0.10591387
H      0.91521033     1.91440973     0.47170135
O     -6.57643679    -2.27656081    -0.33929064
H     -7.49761000    -2.31767183    -0.62416505
H     -6.55420425    -2.50352816     0.59677049
O     -6.72195421     1.74847384    -1.75894001
H     -7.27756472     1.55411681    -2.52462296
H     -6.26528275     2.58062573    -1.93023205
O     -6.34048317     0.65836701     1.14633055
H     -5.74549331     1.09732082     1.76415688
H     -7.09321402     1.24505463     0.99570230
O     -5.15681075    -0.43478531    -3.54876338
H     -4.37073207    -0.11813229    -4.00750248
H     -5.35588688    -1.31841278    -3.88088950
33
E_Eh=-63.49969828 rel_kcal=0.125 rel_kJ_per_mol=0.52
Pb    -5.38212385     0.22897166    -0.51658551
C      3.96485444    -0.72649599     0.18868867
O      2.67657775    -0.24032040    -0.17805360
C      1.61673166    -0.89715945     0.31783367
O      1.74352468    -1.86972921     1.05024518
C      0.33690441    -0.33639592    -0.09916198
C     -0.83568376    -0.93751301     0.36547670
C     -2.06603044    -0.43693349     0.00344237
O     -3.24848938    -0.99463005     0.44375806
C     -2.17241818     0.68565050    -0.84068794
O     -3.31182702     1.20821754    -1.21849339
C     -0.96875117     1.27573425    -1.30393736
O     -1.07668769     2.35754894    -2.12351481
C      0.26061846     0.77804876    -0.94099268
H      4.07250641    -0.72333506     1.27468601
H      4.67646391    -0.05073199    -0.27544581
H      4.09934490    -1.74621739    -0.17602692
H     -0.74172918    -1.79746915     1.01152478
H     -3.06917318    -1.75786797     1.01410344
H     -2.03457479     2.52013714    -2.23536299
H      1.15682857     1.24952405    -1.30800185
O     -6.79137018    -1.96060207    -0.28241858
H     -7.74514563    -1.84087847    -0.36493147
H     -6.54760478    -2.71050961    -0.83610040
O     -6.65640726     2.30769307    -1.05153534
H     -6.10053762     3.07954216    -1.21149812
H     -7.31932235     2.55394412    -0.39351852
O     -5.91192923     1.21557915     1.80052764
H     -6.34082588     0.62007933     2.42729632
H     -5.19755756     1.66685630     2.26429190
O     -6.00081318    -0.08699894    -2.95034349
H     -6.67206314     0.53685279    -3.25604481
H     -5.26773821    -0.05823133    -3.57536075
33
E_Eh=-63.49968111 rel_kcal=0.136 rel_kJ_per_mol=0.57
Pb    -5.37978704     0.19667256    -0.62546486
C      2.74023519    -2.58129549     1.63429932
O      1.51407459    -2.00166345     1.19653824
C      1.59722715    -0.84893988     0.50908713
O      2.67359771    -0.32047731     0.26969926
C      0.29884699    -0.32727507     0.09851462
C     -0.88729927    -0.99126126     0.42055828
C     -2.09877870    -0.47296471     0.01939374
O     -3.29564320    -1.08752157     0.32142034
C     -2.17375728     0.72357373    -0.72028940
O     -3.29733854     1.25675464    -1.13149223
C     -0.95734658     1.38029691    -1.03394974
O     -1.03471697     2.53799065    -1.74673903
C      0.25216421     0.86510801    -0.63203050
H      3.39336467    -2.77042007     0.78078400
H      2.46608171    -3.50780844     2.12911920
H      3.25104183    -1.90577806     2.32247881
H     -0.83459091    -1.90858397     0.98452928
H     -3.14003860    -1.90825374     0.81395761
H     -1.98701413     2.69705929    -1.90564084
H      1.16963947     1.37585742    -0.87805362
O     -6.59255700    -2.10772026    -0.67283951
H     -7.55621386    -2.08856774    -0.62544776
H     -6.35117413    -2.67674537    -1.41215811
O     -6.78244213     2.19409637    -1.20605375
H     -6.29967595     3.02552913    -1.28198990
H     -7.55747904     2.35163456    -0.65180138
O     -5.92348840     1.07207407     1.72711302
H     -6.26077082     0.43390189     2.36725543
H     -5.25441826     1.60788294     2.16710420
O     -5.69063379    -0.08403306    -3.12082984
H     -6.41249228     0.43792808    -3.49481720
H     -4.89611282     0.10780208    -3.63078743
33
E_Eh=-63.49958917 rel_kcal=0.194 rel_kJ_per_mol=0.81
Pb    -5.34680514     0.12376053    -0.88898981
C      3.88509806    -0.62877141     0.77918545
O      2.60284111    -0.08539399     0.47780942
C      1.56984903    -0.94160987     0.45966526
O      1.71442730    -2.13470709     0.69175336
C      0.29536836    -0.30905045     0.14035162
C     -0.84919396    -1.10865841     0.08888828
C     -2.07330520    -0.55455645    -0.21106966
O     -3.22664831    -1.30858467    -0.28193196
C     -2.20116624     0.82414029    -0.46914207
O     -3.33549409     1.41184988    -0.75646342
C     -1.02539718     1.61543151    -0.41291338
O     -1.15588398     2.94640526    -0.66819679
C      0.19787754     1.06286574    -0.11477412
H      3.87038372    -1.10551003     1.76071568
H      4.57063286     0.21283759     0.76519000
H      4.16336579    -1.37220115     0.03028152
H     -0.73928904    -2.16381001     0.28980655
H     -3.03491998    -2.23831986    -0.08575820
H     -2.10401532     3.09480952    -0.85878979
H      1.07299533     1.68979987    -0.07992833
O     -6.95785253    -1.75304668    -0.03310449
H     -6.97192886    -1.91018905     0.91722082
H     -7.87363505    -1.71555072    -0.33495748
O     -6.71714421     1.92694663    -1.93503293
H     -7.28439202     1.64135872    -2.66274697
H     -6.22795464     2.70364160    -2.23132429
O     -6.10654188     1.41391749     1.14745509
H     -5.41049504     1.94683436     1.54723671
H     -6.87180208     1.98715725     1.00751845
O     -5.19982377    -0.52117205    -3.36628355
H     -4.41438183    -0.23092165    -3.84351158
H     -5.35761043    -1.44643809    -3.59037670
33
E_Eh=-63.49919057 rel_kcal=0.444 rel_kJ_per_mol=1.86
Pb    -5.30485752    -0.05569003    -0.63769696
C      4.02880448    -0.36166662     0.58485558
O      2.73121823     0.04546286     0.15933907
C      1.69998640    -0.72496988     0.53774476
O      1.85939719    -1.73193160     1.21521897
C      0.40772503    -0.24120220     0.06637081
C     -0.73743766    -0.96356665     0.40997396
C     -1.97957572    -0.54182284    -0.00817377
O     -3.13294951    -1.22939015     0.30998426
C     -2.12640069     0.62194827    -0.78739359
O     -3.27816697     1.07885498    -1.21118293
C     -0.94907216     1.33698021    -1.12679396
O     -1.09482708     2.46127899    -1.88032250
C      0.29199490     0.91683440    -0.70944595
H      4.07714916    -0.38270670     1.67488637
H      4.71504989     0.37507298     0.17906796
H      4.25400348    -1.35878235     0.20281650
H     -0.61430098    -1.85298124     1.00977132
H     -2.92625103    -1.95846362     0.91452449
H     -2.05422590     2.55724632    -2.04423370
H      1.16679552     1.48332216    -0.98140523
O     -6.74109756    -2.23587687    -0.91130487
H     -7.61399771    -2.19608285    -0.50348909
H     -6.36931669    -3.10365482    -0.71939395
O     -6.73664966     1.93940936    -1.08121657
H     -7.37778519     1.77508223    -1.78499144
H     -6.25074092     2.73980919    -1.31368060
O     -5.87885973     0.80450088     1.70339182
H     -6.71949032     1.27662499     1.75950599
H     -5.21170548     1.34195497     2.14463885
O     -5.82713459    -0.15576167    -3.10807955
H     -5.10016828     0.05288187    -3.70540286
H     -6.21833967    -0.99117820    -3.39258129
33
E_Eh=-63.49914629 rel_kcal=0.471 rel_kJ_per_mol=1.97
Pb    -5.32601137     0.14563694    -0.51841052
C      4.01814858    -0.58398516     0.46008013
O      2.72884355    -0.12009009     0.06882395
C      1.67141301    -0.79496946     0.54483247
O      1.80070928    -1.76311647     1.28262790
C      0.39044647    -0.26190451     0.09616363
C     -0.77951819    -0.89179865     0.52734082
C     -2.01131492    -0.42618751     0.12534203
O     -3.18892079    -1.02679225     0.52134290
C     -2.12218368     0.69217972    -0.72357175
O     -3.26201768     1.18375371    -1.14013539
C     -0.92063587     1.31527985    -1.14812132
O     -1.03059990     2.39530000    -1.96947339
C      0.31005658     0.84988443    -0.74855280
H      4.10052457    -0.59253563     1.54822791
H      4.72610504     0.11189783     0.02077432
H      4.18207017    -1.59600494     0.08604485
H     -0.68269357    -1.74728868     1.17893977
H     -3.00518845    -1.71946079     1.17455108
H     -1.98798694     2.53438651    -2.11144925
H      1.20385437     1.34530894    -1.08892963
O     -6.67004180    -2.07555060    -0.90202378
H     -6.21291477    -2.92130239    -0.83814230
H     -7.48234657    -2.14397676    -0.38652786
O     -6.59129058     2.24302026    -0.99382918
H     -7.15566661     2.13424350    -1.77063896
H     -6.03132930     3.01304929    -1.14916692
O     -6.12749505     0.86351898     1.81410288
H     -5.51358376     1.37084931     2.35672533
H     -6.97703888     1.32254661     1.82599979
O     -5.98745886     0.05739853    -2.96007906
H     -5.27304738     0.12148195    -3.60413104
H     -6.50430439    -0.73245383    -3.16407017
33
E_Eh=-63.49794898 rel_kcal=1.223 rel_kJ_per_mol=5.12
Pb    -5.39020704     0.17687261    -0.57461016
C      3.94286147    -0.57001732     0.37161404
O      2.65563207    -0.09960806    -0.01831619
C      1.59683144    -0.79492919     0.42499853
O      1.72463604    -1.78658325     1.13124262
C      0.31749178    -0.25208374    -0.01556258
C     -0.85331960    -0.89845733     0.38880844
C     -2.08401675    -0.42013024    -0.00069927
O     -3.26225226    -1.03046522     0.37550469
C     -2.19337683     0.72724455    -0.81023674
O     -3.33427535     1.23125162    -1.20737614
C     -0.99118688     1.36556627    -1.20942237
O     -1.09977640     2.47539452    -1.99120082
C      0.23866949     0.88806266    -0.82190779
H      4.03558222    -0.55284291     1.45884181
H      4.65487820     0.10673582    -0.09037766
H      4.09107818    -1.59292743     0.02140122
H     -0.75752553    -1.77565893     1.01091898
H     -3.07888224    -1.75179871     0.99671997
H     -2.05711829     2.62134700    -2.12499583
H      1.13312486     1.39653576    -1.14071696
O     -6.82958592    -1.96320949    -0.19531473
H     -6.56314937    -2.79872685    -0.59410277
H     -7.14559048    -2.14903179     0.69613342
O     -6.66821771     2.28405693    -1.01497957
H     -7.52784506     2.27692499    -1.45446202
H     -6.15678967     3.02359664    -1.36266130
O     -5.74448848     1.09701628     1.77939882
H     -5.06039729     1.67856424     2.12827671
H     -6.59693486     1.52217699     1.93810140
O     -5.57797005    -0.49996631    -2.99300551
H     -6.40917892    -0.63184514    -3.46609343
H     -4.93049074    -0.14204249    -3.60959204
33
E_Eh=-63.49769971 rel_kcal=1.379 rel_kJ_per_mol=5.77
Pb    -5.34628876     0.13421411    -0.62716132
C      3.97107867    -0.62295239     0.53201098
O      2.69278115    -0.14121039     0.12657676
C      1.62670266    -0.86546679     0.50064881
O      1.74128277    -1.89039066     1.16050872
C      0.35691338    -0.31246685     0.04652197
C     -0.81861175    -0.98948485     0.38005378
C     -2.04199414    -0.50715114    -0.02695100
O     -3.22094612    -1.15536274     0.28141850
C     -2.14072699     0.67571528    -0.78502954
O     -3.27016201     1.18356028    -1.20695646
C     -0.93294470     1.34602755    -1.11123652
O     -1.03007242     2.48877914    -1.84512354
C      0.28958330     0.86471274    -0.70610256
H      4.02823125    -0.66635174     1.62094106
H      4.69138189     0.08393219     0.13225039
H      4.14003582    -1.62343845     0.13018743
H     -0.73218565    -1.89474790     0.96235185
H     -3.03101092    -1.92489064     0.84004468
H     -1.98468525     2.63244410    -2.00139020
H      1.18736304     1.39786006    -0.97073678
O     -6.88452861    -1.97360960    -0.78549757
H     -7.78153808    -1.87957574    -0.44394746
H     -6.58552063    -2.86661424    -0.58283666
O     -6.69698634     2.14949364    -1.17861041
H     -7.27442885     2.01078969    -1.94132145
H     -6.16739327     2.93630492    -1.35454709
O     -5.90958049     1.06458419     1.68128187
H     -6.64367203     1.68739293     1.74160813
H     -5.87048193     0.56156462     2.50299823
O     -5.76249154    -0.03027412    -3.11104167
H     -4.99901445     0.16396422    -3.66627189
H     -6.15607546    -0.85587970    -3.41940213
33
E_Eh=-63.49597253 rel_kcal=2.463 rel_kJ_per_mol=10.31
Pb    -5.52258340     0.10725301    -0.40135777
C      2.78014923    -2.51575875     1.36279865
O      1.51482652    -1.96178639     1.01334223
C      1.52614775    -0.81868231     0.30602384
O      2.57211565    -0.27477933    -0.02246306
C      0.19409359    -0.32288910    -0.01325595
C     -0.95968951    -0.99175725     0.40149153
C     -2.19591934    -0.48601444     0.07293718
O     -3.36515634    -1.09682603     0.46961531
C     -2.34661631     0.69839115    -0.68680175
O     -3.51693347     1.16787688    -1.01035703
C     -1.15869883     1.36218505    -1.09044794
O     -1.31613146     2.50682467    -1.81681424
C      0.07643114     0.85641069    -0.75656251
H      3.36216683    -2.72247511     0.46308625
H      2.56049246    -3.43088624     1.90376740
H      3.33805003    -1.81599523     1.98730583
H     -0.86138854    -1.89860278     0.97612502
H     -3.17735915    -1.93041121     0.92773414
H     -0.45238954     2.88563951    -2.03515195
H      0.98351104     1.35692275    -1.06312447
O     -6.20947792    -2.36251550    -0.92701555
H     -7.14880363    -2.57455563    -0.86765993
H     -5.89652750    -2.67635437    -1.78266223
O     -6.45560085     2.38647595    -0.90540749
H     -5.71097805     2.97744940    -1.07191866
H     -7.01606652     2.79674511    -0.23490190
O     -5.96104595     0.83394982     2.05145081
H     -6.37375242     0.19453076     2.64423465
H     -5.23975143     1.25725524     2.52980473
O     -5.84181995     0.13926381    -2.90823359
H     -6.57748182     0.69956506    -3.18819046
H     -5.04036936     0.49417839    -3.30944726
33
E_Eh=-63.49556468 rel_kcal=2.719 rel_kJ_per_mol=11.38
Pb    -5.40697942     0.08901486    -0.59205411
C      3.92840433    -0.54201430     0.46595354
O      2.63609259    -0.06936840     0.09708009
C      1.58488989    -0.80888319     0.49188797
O      1.72747132    -1.83689665     1.14110308
C      0.30134251    -0.26489204     0.07230341
C     -0.86459696    -0.94996546     0.42319222
C     -2.09148904    -0.46447138     0.03873425
O     -3.26852187    -1.10458409     0.36585718
C     -2.22077563     0.72631675    -0.71564795
O     -3.37695576     1.18807939    -1.08938870
C     -1.01987127     1.40470893    -1.05788725
O     -1.15864266     2.55111515    -1.78523591
C      0.20720438     0.91667802    -0.67096494
H      4.00319021    -0.62451748     1.55151473
H      4.63041335     0.19149178     0.08178353
H      4.10912858    -1.52391646     0.02531784
H     -0.76717554    -1.85981178     0.99620914
H     -3.08528229    -1.91902496     0.85858562
H     -0.29032487     2.93987656    -1.96618743
H      1.11248635     1.43914422    -0.93882659
O     -6.59980578    -2.25621222    -0.65981387
H     -7.56409194    -2.25918077    -0.63061758
H     -6.33156089    -2.82816341    -1.38700075
O     -6.51211418     2.24755992    -1.17941031
H     -5.84648718     2.93758539    -1.29041915
H     -7.16660254     2.56557723    -0.54410259
O     -5.99992957     1.02411999     1.73208185
H     -6.42626672     0.41496773     2.34702041
H     -5.29448691     1.47754921     2.20649892
O     -5.66425248    -0.11469240    -3.10672132
H     -6.41179256     0.38631585    -3.45846139
H     -4.87209636     0.18823930    -3.56532977
