32
E_Eh=-63.30705689 rel_kcal=0.000 rel_kJ_per_mol=0.00
Pb    -5.54117242     0.43600476    -0.91019989
C      3.43156815    -0.52632609     0.96837905
O      2.23336378    -0.03018327     0.37623503
C      1.07635606    -0.57287079     0.80780662
O      1.07340805    -1.44601553     1.67001896
C     -0.10267944    -0.03000703     0.16087486
C     -1.35678851    -0.53078418     0.52933963
C     -2.52202948    -0.06163983    -0.05741955
O     -3.71519291    -0.53144191     0.27208950
C     -2.42263839     0.95335108    -1.04808049
O     -3.49580134     1.44634257    -1.64249149
C     -1.15443950     1.44340467    -1.40671110
O     -1.09387687     2.41889019    -2.37333821
C     -0.00581073     0.96546092    -0.81659916
H      3.41987842    -0.34699789     2.04499029
H      4.23876876     0.01843312     0.48868368
H      3.52024007    -1.59980301     0.79145274
H     -1.40694729    -1.30115355     1.28535943
H     -2.01753859     2.57481553    -2.64719310
H      0.95275714     1.35879168    -1.11187956
O     -5.70087885    -2.18110712    -1.06389678
H     -4.86244549    -2.36830176    -0.62448261
H     -6.40060938    -2.54405316    -0.50650697
O     -6.12485014     2.97901139    -0.45735728
H     -6.76051211     3.35068752    -1.08197701
H     -5.31537764     3.49575058    -0.52988685
O     -6.19733881     0.21409342     1.61384492
H     -5.36675420    -0.16078759     1.93188225
H     -6.32511457     1.05951871     2.06060756
O     -5.89242890    -0.18915334    -3.44571311
H     -5.14610435     0.09290397    -3.98593407
H     -5.95556230    -1.15010426    -3.51352382
32
E_Eh=-63.30697254 rel_kcal=0.053 rel_kJ_per_mol=0.22
Pb    -5.53053683     0.44970558    -0.79499214
C      3.48094870    -0.61154040     0.79161716
O      2.27002641    -0.09864851     0.24123245
C      1.12092820    -0.62544451     0.71211371
O      1.13537923    -1.49901650     1.57368127
C     -0.07169565    -0.06501928     0.10643062
C     -1.31965036    -0.55118172     0.51364097
C     -2.49728694    -0.06481257    -0.03308765
O     -3.68464155    -0.52224034     0.33308767
C     -2.41665038     0.95392866    -1.02160397
O     -3.50199879     1.46412700    -1.57813209
C     -1.15443377     1.42824261    -1.42040237
O     -1.11326890     2.40577556    -2.38625987
C      0.00644853     0.93285420    -0.87034122
H      3.50204993    -0.44675232     1.87032882
H      4.27807850    -0.06657122     0.29566800
H      3.55608925    -1.68304694     0.59783161
H     -1.35567252    -1.32402496     1.26789982
H     -2.04349869     2.57103361    -2.63061101
H      0.95997623     1.31435790    -1.19591071
O     -5.77787178    -2.16992742    -0.84329885
H     -4.94192426    -2.37793043    -0.40872126
H     -6.48497032    -2.49818967    -0.27380012
O     -5.99377496     3.01665057    -0.33514907
H     -6.65080052     3.41782437    -0.91789746
H     -5.15741354     3.46772313    -0.49092579
O     -6.16687976     0.46458208     1.73723437
H     -5.36218252     0.11358222     2.13628424
H     -6.29276431     1.36068826     2.07215265
O     -5.90087917    -0.22794055    -3.31842122
H     -5.16385781     0.04011762    -3.87815727
H     -5.96836634    -1.18966774    -3.36399731
32
E_Eh=-63.30685985 rel_kcal=0.124 rel_kJ_per_mol=0.52
Pb    -5.52790521     0.30677480    -0.36535016
C      3.63825273    -0.66182735    -0.24017031
O      2.35659896    -0.03772941    -0.21701805
C      1.28540813    -0.85164754    -0.31493674
O      1.42475313    -2.06647877    -0.41742936
C      0.01479850    -0.15294113    -0.28555401
C     -1.16339535    -0.90301815    -0.37703143
C     -2.40983287    -0.29563427    -0.35465179
O     -3.53299612    -0.98949148    -0.44489819
C     -2.47373433     1.11979086    -0.23284928
O     -3.63084418     1.75939052    -0.19821299
C     -1.27976092     1.85702173    -0.14541701
O     -1.37553018     3.22371120    -0.03313908
C     -0.04936459     1.23924687    -0.17013868
H      3.73190267    -1.35645867     0.59640688
H      4.35630179     0.14825911    -0.15939554
H      3.76950015    -1.21378211    -1.17250660
H     -1.09078644    -1.97737357    -0.46741482
H     -2.33083503     3.42120451    -0.04857678
H      0.84875934     1.83033360    -0.10083603
O     -5.85710459    -1.85661874     1.08978220
H     -4.98130059    -2.23639753     0.94607617
H     -5.95906649    -1.70477983     2.03695540
O     -6.30172446     1.99072249    -2.23745773
H     -5.67677761     2.72047838    -2.30958419
H     -6.30451920     1.52643982    -3.08324318
O     -6.15622843     1.58011435     1.86093491
H     -5.38552615     2.06079674     2.18079228
H     -6.86849194     2.22175444     1.74345235
O     -5.58710454    -1.05263091    -2.61154462
H     -4.70765436    -1.44496322    -2.56294444
H     -6.22358964    -1.77909728    -2.60715372
32
E_Eh=-63.30641109 rel_kcal=0.405 rel_kJ_per_mol=1.70
Pb    -5.38481669     0.24193125    -0.94950057
C      3.66247824    -0.61394640     0.56041389
O      2.41206275    -0.02439937     0.21229688
C      1.32117185    -0.81056985     0.32070640
O      1.41802813    -1.97220313     0.70404359
C      0.08464433    -0.15047856    -0.05178774
C     -1.10993394    -0.87634604     0.02131472
C     -2.32481499    -0.30482310    -0.32669765
O     -3.46384222    -0.97524681    -0.26734066
C     -2.33834599     1.04977143    -0.76169869
O     -3.46302996     1.65557450    -1.10641655
C     -1.12824414     1.76273138    -0.82936863
O     -1.17619542     3.06683598    -1.26043824
C      0.07008878     1.18032532    -0.48186424
H      3.64169479    -0.95251554     1.59778407
H      4.40118373     0.16858868     0.41778187
H      3.86559689    -1.47014334    -0.08527163
H     -1.07493639    -1.90383871     0.35384579
H     -2.11612991     3.24094823    -1.45565637
H      0.98174394     1.75092646    -0.54494767
O     -5.98993530    -2.06450935     0.24703727
H     -6.37370607    -2.75603563    -0.30524696
H     -5.05576718    -2.27781853     0.36884037
O     -6.67749634     2.55605458    -0.93749009
H     -6.05528862     3.28679055    -1.01589002
H     -7.14535784     2.66481448    -0.10044693
O     -6.03827892     0.66063515     1.52777172
H     -6.44257308    -0.17378732     1.80040416
H     -5.27340800     0.80536128     2.09540941
O     -5.35798610    -0.44720429    -3.50216341
H     -5.35926660     0.30205714    -4.10999184
H     -4.62425763    -1.02142240    -3.74792752
32
E_Eh=-63.30638742 rel_kcal=0.420 rel_kJ_per_mol=1.76
Pb    -5.39806873     0.31700151    -1.02624069
C      2.32863316    -2.74317773     1.30106073
O      1.13951798    -2.07898030     0.87946466
C      1.28606883    -0.83354426     0.38134571
O      2.39497526    -0.31387680     0.30388555
C      0.03966804    -0.21685537    -0.03027810
C     -1.18258766    -0.88851238     0.08569370
C     -2.36776824    -0.29072438    -0.31726463
O     -3.53376187    -0.91025387    -0.22359102
C     -2.32536566     1.02892455    -0.84812721
O     -3.42339884     1.64905971    -1.24509590
C     -1.08749990     1.68590623    -0.96033481
O     -1.07954512     2.95425455    -1.49014567
C      0.08004247     1.07783259    -0.55919044
H      3.02057552    -2.84134132     0.46275327
H      2.00538610    -3.71555088     1.65924465
H      2.81610571    -2.17262964     2.09349807
H     -1.20719855    -1.88867544     0.48958744
H     -2.01020983     3.14925322    -1.71010039
H      1.02414362     1.59158636    -0.65127362
O     -6.08181018    -2.02500919     0.05783221
H     -6.43232973    -2.70167436    -0.53310249
H     -5.15867965    -2.24702764     0.23574414
O     -6.55604007     2.67193409    -0.70460009
H     -5.89410170     3.37149442    -0.70367756
H     -6.99157748     2.68635344     0.15702279
O     -6.04195967     0.58258235     1.47700293
H     -6.52853618    -0.23239916     1.65936119
H     -5.25005409     0.56584264     2.02495077
O     -5.34887690    -0.36197526    -3.59042100
H     -5.36743888     0.39287644    -4.19076307
H     -4.60016883    -0.91402980    -3.84150490
32
E_Eh=-63.30635594 rel_kcal=0.440 rel_kJ_per_mol=1.84
Pb    -5.40528428     0.18897924    -0.90617645
C      3.67962058    -0.55420770     0.42438270
O      2.41224596     0.02619675     0.12541147
C      1.33968492    -0.78748870     0.20892369
O      1.46647959    -1.96503248     0.52982819
C      0.08383600    -0.13626637    -0.11141247
C     -1.09329639    -0.89148936    -0.05781834
C     -2.32605219    -0.33053873    -0.35771503
O     -3.44928885    -1.02743852    -0.31398920
C     -2.37476200     1.04337848    -0.72380534
O     -3.51727637     1.64233242    -1.02147991
C     -1.18247092     1.78696697    -0.76949096
O     -1.26687699     3.11116220    -1.12691760
C      0.03382036     1.21445164    -0.47078683
H      3.68616135    -0.93359335     1.44774838
H      4.40179158     0.24633788     0.29814856
H      3.88357072    -1.38071833    -0.25867260
H     -1.03077078    -1.93354577     0.22097570
H     -2.21483704     3.27637520    -1.28933386
H      0.93168451     1.80807526    -0.51644297
O     -5.94243524    -2.02393963     0.47232545
H     -6.36868673    -2.73635397    -0.01882195
H     -5.00419319    -2.24326502     0.54351476
O     -6.84706599     2.41305344    -1.13522378
H     -6.29576293     3.19240303    -1.26259526
H     -7.34827022     2.54619561    -0.32179659
O     -6.09907482     0.81198653     1.52279287
H     -6.44846262    -0.00711603     1.89749302
H     -5.36752256     1.09532182     2.08217131
O     -5.32765513    -0.55336441    -3.44012642
H     -5.26499679     0.18189935    -4.06184169
H     -4.61180169    -1.16690516    -3.63988850
32
E_Eh=-63.30634069 rel_kcal=0.449 rel_kJ_per_mol=1.88
Pb    -5.46997518     0.32449455    -0.56268949
C      3.63721892    -0.52158119     0.55589702
O      2.36629973     0.07963672     0.31959921
C      1.29950745    -0.74581952     0.30626241
O      1.43457890    -1.95189554     0.48757586
C      0.03921674    -0.06998515     0.06443340
C     -1.13326476    -0.83365198     0.03069323
C     -2.37134071    -0.24740735    -0.18755562
O     -3.49085858    -0.95076479    -0.22075405
C     -2.43053206     1.16100124    -0.38033337
O     -3.57911995     1.78446242    -0.58945433
C     -1.24199648     1.91136394    -0.34609727
O     -1.33629428     3.26948269    -0.53367674
C     -0.02064842     1.31420692    -0.12708318
H      3.65405718    -0.98549155     1.54367112
H      4.35725679     0.28817186     0.49116547
H      3.83546758    -1.28736149    -0.19606488
H     -1.06364626    -1.90110879     0.18319870
H     -2.28728939     3.44906274    -0.65863668
H      0.87349511     1.91475134    -0.10324957
O     -5.82753733    -2.28115587    -0.97121480
H     -4.89909884    -2.46552247    -0.77755604
H     -6.35401821    -2.73283371    -0.30097418
O     -6.79039120     2.37944681    -1.61793438
H     -7.10692711     2.12940888    -2.49446234
H     -6.22761424     3.15336547    -1.72701302
O     -6.10052040     0.63781517     1.98416576
H     -5.40435072     0.38888529     2.60181356
H     -6.39512549     1.52768796     2.21447108
O     -5.59960562    -0.12987188    -3.11769624
H     -4.74680499    -0.08268144    -3.56378726
H     -5.91496243    -1.04010528    -3.19197932
32
E_Eh=-63.30622762 rel_kcal=0.520 rel_kJ_per_mol=2.18
Pb    -5.60244067     0.40641168    -0.53536394
C      3.51275977    -0.77239395     0.10554894
O      2.25824623    -0.17106916    -0.20596585
C      1.15521422    -0.81225565     0.23131404
O      1.24523563    -1.85709028     0.86847997
C     -0.08648996    -0.15532870    -0.12982781
C     -1.29338099    -0.75636030     0.24603391
C     -2.51594009    -0.19127335    -0.08512453
O     -3.66627047    -0.75159602     0.25243751
C     -2.52261919     1.02760933    -0.81625078
O     -3.65216542     1.61943035    -1.16959822
C     -1.30116658     1.62092979    -1.18006495
O     -1.34689846     2.79824567    -1.88709353
C     -0.09536179     1.04457719    -0.84806821
H      3.62183013    -0.87422247     1.18669195
H      4.26397465    -0.10425287    -0.30380897
H      3.57632909    -1.76243173    -0.34951604
H     -1.26123671    -1.68399372     0.79938802
H     -2.29554200     2.99430720    -2.00744110
H      0.82560106     1.51893130    -1.14386217
O     -5.69014295    -2.01272448    -1.54783107
H     -6.43358458    -2.60299930    -1.36885064
H     -4.89366816    -2.41584667    -1.18431851
O     -6.17511806     2.59708641     0.77743867
H     -5.47401969     3.25086339     0.67998618
H     -6.23571810     2.37037440     1.71406871
O     -5.80273100    -0.17911852     2.04166805
H     -6.41915147    -0.87047310     2.31397128
H     -4.91245320    -0.55152067     2.08254929
O     -6.31942742     0.95691205    -3.01805624
H     -6.23330547     1.89358481    -3.23060614
H     -5.80205782     0.46485504    -3.66522679
32
E_Eh=-63.30612392 rel_kcal=0.585 rel_kJ_per_mol=2.45
Pb    -5.56578480     0.12296040    -0.68352282
C      3.60904996    -0.28751274     0.06396938
O      2.29479531     0.25637295    -0.03164739
C      1.28030186    -0.62700769    -0.12954188
O      1.49554701    -1.83504119    -0.13644374
C     -0.02818565    -0.00825696    -0.22371358
C     -1.15207252    -0.83586710    -0.32938297
C     -2.43135191    -0.30814121    -0.42210475
O     -3.50606034    -1.07364202    -0.52319172
C     -2.58297200     1.10508335    -0.40614962
O     -3.77384742     1.67591284    -0.48469417
C     -1.44345614     1.92159128    -0.30138231
O     -1.63053045     3.28277382    -0.28984915
C     -0.17977654     1.38198515    -0.21134666
H      3.69916196    -0.89190147     0.96827755
H      4.27528888     0.56884514     0.09734085
H      3.81828800    -0.91703827    -0.80267878
H     -1.00887820    -1.90683365    -0.33880898
H     -2.59504005     3.41509798    -0.36330274
H      0.67666728     2.03071303    -0.13234934
O     -5.72070852    -1.93626262     0.98851106
H     -6.23836465    -2.71029228     0.73500723
H     -4.78839432    -2.15657946     0.86138119
O     -6.53543340     2.06638401    -2.20951249
H     -5.92487008     2.30396560    -2.91561314
H     -6.72104609     2.86915808    -1.70806908
O     -6.20549131     0.97330626     1.69422917
H     -5.51713101     1.54249712     2.05546818
H     -6.27112635     0.19525539     2.26277247
O     -5.38142952    -1.18306881    -2.95116382
H     -4.54416326    -1.65642266    -2.89536151
H     -6.06451562    -1.81388811    -3.21407908
32
E_Eh=-63.30603855 rel_kcal=0.639 rel_kJ_per_mol=2.67
Pb    -5.42403158     0.30866460    -0.97038435
C      3.60091696    -0.69071728     0.58829687
O      2.34922099    -0.06396374     0.31785769
C      1.27344291    -0.87319656     0.23539474
O      1.38445333    -2.08555201     0.38847425
C      0.03356043    -0.17399470    -0.04452431
C     -1.14415271    -0.92219946    -0.15225778
C     -2.36377305    -0.31653210    -0.41786142
O     -3.48739796    -1.00637163    -0.52030698
C     -2.39640260     1.09561343    -0.58407428
O     -3.52544187     1.74014404    -0.83824409
C     -1.20403595     1.83151768    -0.47057756
O     -1.27625758     3.19421215    -0.63234469
C     -0.00135712     1.21494656    -0.20533611
H      3.56646109    -1.19437076     1.55594244
H      4.33240496     0.11128564     0.58984998
H      3.82544216    -1.42810991    -0.18440499
H     -1.09314802    -1.99388984    -0.02393374
H     -2.21702765     3.38535453    -0.80931243
H      0.89714367     1.80370194    -0.12339280
O     -5.98648174    -1.79806126     0.51833000
H     -6.48983391    -2.49416019     0.07875685
H     -5.06425864    -2.08481055     0.54860698
O     -6.79139245     2.34496022    -2.05565038
H     -6.30005119     3.17284755    -2.04097981
H     -7.64258508     2.50659198    -1.63111983
O     -6.15948933     1.17577603     1.37128453
H     -6.45171857     0.41697421     1.89247923
H     -5.45103219     1.61066112     1.85809576
O     -5.06685723    -0.75862685    -3.33378938
H     -4.83112516    -0.13026795    -4.02736941
H     -4.33582074    -1.38007334    -3.23945110
32
E_Eh=-63.30540337 rel_kcal=1.038 rel_kJ_per_mol=4.34
Pb    -5.42057518     0.34040395    -1.05668704
C      3.57562295    -0.72963400     0.60908600
O      2.32770849    -0.09216863     0.34680443
C      1.25032425    -0.89563777     0.23085862
O      1.35742158    -2.11251694     0.34783761
C      0.01527374    -0.18434824    -0.03643943
C     -1.16511857    -0.92345881    -0.17662939
C     -2.37871708    -0.30455735    -0.43720788
O     -3.50464579    -0.98581676    -0.57192459
C     -2.40480391     1.11247218    -0.55909007
O     -3.52783644     1.76838936    -0.80212017
C     -1.20929654     1.83866428    -0.41441817
O     -1.27238152     3.20579887    -0.53886188
C     -0.01219931     1.20892717    -0.15722268
H      3.53927584    -1.24163735     1.57227542
H      4.31227285     0.06762974     0.61702415
H      3.79405958    -1.46132042    -0.17069271
H     -1.11947154    -1.99885344    -0.08142971
H     -2.20919683     3.40653388    -0.72466624
H      0.88846746     1.79079059    -0.05261263
O     -6.02384686    -2.03400869    -0.01338791
H     -6.43591340    -2.68840551    -0.59006554
H     -5.08749300    -2.26188652     0.05863498
O     -6.88238360     2.56338004    -0.94805854
H     -6.36856248     3.34593540    -1.17460690
H     -7.19329153     2.67520471    -0.04153505
O     -6.14562454     0.56385186     1.41154676
H     -6.53539083    -0.29507535     1.62330548
H     -5.39088805     0.68892070     1.99662377
O     -5.41995040    -0.18006194    -3.64997930
H     -4.76919639    -0.81353141    -3.97083543
H     -6.24987631    -0.34051879    -4.11747181
32
E_Eh=-63.30427628 rel_kcal=1.745 rel_kJ_per_mol=7.30
Pb    -5.43670510     0.27021614    -0.90666055
C      3.61711038    -0.62387347     0.46838478
O      2.36121011    -0.02630026     0.15526086
C      1.28095216    -0.83365146     0.19057344
O      1.39276820    -2.02178279     0.47643141
C      0.03740899    -0.16219510    -0.13483282
C     -1.14668803    -0.90846424    -0.13291072
C     -2.36912507    -0.32601134    -0.43373307
O     -3.49696072    -1.01749339    -0.44063645
C     -2.40015855     1.06072875    -0.74848388
O     -3.52917179     1.68037193    -1.05400867
C     -1.20071218     1.79453363    -0.74485826
O     -1.26729101     3.13134558    -1.05642460
C      0.00492253     1.20131520    -0.44450579
H      3.60822221    -0.99873042     1.49337175
H      4.35179022     0.16594335     0.34662254
H      3.81578220    -1.45607500    -0.20921587
H     -1.09765420    -1.96041433     0.10922871
H     -2.21252761     3.31231517    -1.21710815
H      0.90791438     1.78892229    -0.44936593
O     -5.94225734    -1.90678656     0.54988432
H     -6.41923337    -2.63735701     0.13834917
H     -5.00382606    -2.13611187     0.55165762
O     -6.84515976     2.51702654    -1.27848801
H     -7.38685342     2.57276818    -2.07472937
H     -6.26567973     3.28536526    -1.26787661
O     -5.92482631     0.91063555     1.55092151
H     -6.76215565     1.38149278     1.65385354
H     -5.99889723     0.07934140     2.03713516
O     -5.39910991    -0.53655333    -3.42616297
H     -4.90469054     0.05765665    -4.00285361
H     -5.00498330    -1.41190723    -3.51547174
32
E_Eh=-63.30417864 rel_kcal=1.806 rel_kJ_per_mol=7.56
Pb    -5.40808738     0.02448433    -0.77965848
C      3.71544079    -0.42092741     0.37918110
O      2.42361821     0.11823484     0.10931260
C      1.38533545    -0.74133532     0.16507158
O      1.56256658    -1.92544161     0.43347002
C      0.10175717    -0.12749828    -0.11668631
C     -1.04472152    -0.92979255    -0.08488418
C     -2.30252226    -0.40430694    -0.34335445
O     -3.39713058    -1.14586433    -0.32204988
C     -2.40788318     0.98248294    -0.64290560
O     -3.57650048     1.54897595    -0.89921366
C     -1.24550953     1.77280245    -0.67024427
O     -1.38606056     3.10780145    -0.96516448
C     -0.00413298     1.23521346    -0.41341132
H      3.74429031    -0.83757762     1.38758766
H      4.40357543     0.41270595     0.27930153
H      3.94811462    -1.21242931    -0.33542484
H     -0.93896794    -1.97999948     0.14616185
H     -2.34300519     3.24291257    -1.10102076
H      0.86980466     1.86452074    -0.44242726
O     -5.91828329    -2.34989241     0.28204192
H     -6.25154940    -3.07140317    -0.26608563
H     -4.99729613    -2.54601469     0.49122098
O     -6.89037771     2.27089637    -0.94563148
H     -7.68145706     2.19938279    -1.49302005
H     -6.37154039     3.00942656    -1.28040631
O     -5.95484802     0.87297059     1.59033965
H     -5.19499315     1.17355385     2.10022373
H     -6.56411221     1.61833459     1.50236547
O     -5.33829744    -0.35422773    -3.39952857
H     -4.81350526     0.31874715    -3.84780020
H     -4.98737339    -1.21225873    -3.66514028
32
E_Eh=-63.30267863 rel_kcal=2.747 rel_kJ_per_mol=11.50
Pb    -5.49108464     0.24764656    -0.91896518
C      2.37410541    -2.79517498     0.99578153
O      1.16061700    -2.13615791     0.64238952
C      1.25102674    -0.82419305     0.33966506
O      2.33337505    -0.24370282     0.36766967
C     -0.01626311    -0.21151709    -0.00023637
C     -1.21078739    -0.93983387    -0.01683526
C     -2.41050707    -0.32658758    -0.33782861
O     -3.54989342    -0.99883021    -0.35909150
C     -2.43031816     1.06983104    -0.65126193
O     -3.56474326     1.65791143    -0.94626864
C     -1.21522319     1.78239061    -0.63120150
O     -1.26366977     3.12428724    -0.94031207
C     -0.03290227     1.15151219    -0.31384678
H      3.08125575    -2.75002338     0.16561148
H      2.09347807    -3.82027082     1.21651910
H      2.82279575    -2.31294314     1.86615203
H     -1.20170286    -1.99192237     0.22196457
H     -0.37147549     3.49670851    -0.88373364
H      0.90176072     1.69453031    -0.29674881
O     -6.04567603    -2.12659070     0.19709372
H     -6.43990351    -2.79922348    -0.37086678
H     -5.10388813    -2.32816001     0.27165247
O     -6.11777502     2.80303151    -1.27253997
H     -5.20280630     3.10850111    -1.31380248
H     -6.52643748     3.23062099    -0.51032501
O     -6.20497498     0.54183183     1.55938523
H     -6.56864691    -0.32301716     1.79150167
H     -5.47660488     0.71910334     2.16503110
O     -5.40367290    -0.47101838    -3.45037580
H     -5.40207740     0.28041047    -4.05567918
H     -4.63746240    -1.01672639    -3.65994966
32
E_Eh=-63.30247985 rel_kcal=2.872 rel_kJ_per_mol=12.02
Pb    -5.47132345     0.24174326    -0.84917522
C      3.62008227    -0.66780983     0.45480514
O      2.35939052    -0.05930469     0.18760779
C      1.28028057    -0.87378343     0.19127837
O      1.40101824    -2.07494067     0.41215349
C      0.03339451    -0.19071316    -0.08317373
C     -1.15341334    -0.93236539    -0.10916009
C     -2.37175656    -0.32571407    -0.36373207
O     -3.50228356    -1.01192195    -0.39285420
C     -2.41567860     1.08437520    -0.60120038
O     -3.56367953     1.67393657    -0.83732299
C     -1.20885646     1.81103095    -0.57477765
O     -1.28444842     3.16541336    -0.81442274
C     -0.00686202     1.18696055    -0.32033881
H      3.62563861    -1.09211634     1.46034589
H      4.35219050     0.12839175     0.36210683
H      3.81178968    -1.46580804    -0.26462416
H     -1.10846374    -1.99651245     0.07282515
H     -0.39405478     3.54514217    -0.77743198
H      0.91137201     1.75434012    -0.30204554
O     -5.97197526    -2.15082703     0.24862833
H     -6.36957065    -2.81344962    -0.32874685
H     -5.02646727    -2.34337744     0.29750728
O     -6.11552546     2.77885949    -1.29181771
H     -5.20486765     3.09889811    -1.26964567
H     -6.58993703     3.21705312    -0.57547750
O     -6.18189829     0.53753757     1.63043111
H     -6.52499400    -0.33088235     1.87956692
H     -5.45710141     0.74555168     2.23076321
O     -5.48116371    -0.38653557    -3.40489748
H     -5.52785653     0.39295856    -3.97192553
H     -4.71611812    -0.90431291    -3.67993270
