19
E_Eh=-30.55756622 rel_kcal=0.000 rel_kJ_per_mol=0.00
Zn     0.00143562     0.00460334     0.01168438
O      1.98978515    -0.00361198     0.02007754
H      2.55381527    -0.78482761     0.04137402
H      2.56556604     0.76919634     0.03453099
O     -1.98725029     0.01353616     0.00325578
H     -2.56232482    -0.75982005    -0.00912424
H     -2.55212923     0.79413423    -0.01895733
O      0.00781077     1.99351047     0.00444673
H      0.00552800     2.56722161     0.77889356
H      0.03162828     2.56013546    -0.77480444
O     -0.00495300    -1.98390558     0.01863749
H     -0.02838621    -2.55054048     0.79792411
H     -0.00450169    -2.55739645    -0.75596123
O     -0.01096637     0.01050439     2.00016806
H     -0.79416035     0.02360527     2.56173439
H      0.75971571     0.01420851     2.57892924
O      0.01352887    -0.00259842    -1.97690647
H     -0.75759521     0.00441612    -2.55527521
H      0.79614814    -0.01294778    -2.53906394
19
E_Eh=-30.55751488 rel_kcal=0.032 rel_kJ_per_mol=0.13
Zn     0.00074432     0.00573796     0.01198810
O      1.98975428    -0.00667481     0.04869467
H      2.58700022    -0.01412349    -0.70792676
H      2.53194929    -0.05242264     0.84443494
O     -1.98882905     0.01921129    -0.02412624
H     -2.53337293     0.05865838    -0.81841947
H     -2.58342482     0.02776052     0.73444564
O      0.01752989     1.99526475     0.01876049
H     -0.75013730     2.57788074    -0.00290494
H      0.80174766     2.55243714     0.07934622
O     -0.01714481    -1.98365502     0.00721245
H      0.75103006    -2.56564600     0.01977282
H     -0.80114943    -2.54109257    -0.05241348
O     -0.02183752    -0.00492072     2.00063927
H     -0.06261229     0.76590206     2.57793678
H     -0.09089308    -0.78762910     2.55892472
O      0.02501079     0.01644763    -1.97607501
H      0.06395370    -0.75488520    -2.55275578
H      0.09667883     0.79828520    -2.53487610
19
E_Eh=-30.55642437 rel_kcal=0.717 rel_kJ_per_mol=3.00
Zn     0.00310980     0.00194934     0.00696928
O      2.00425618     0.02222327     0.00305843
H      2.49371927     0.00090783    -0.82829156
H      2.58260001    -0.35347412     0.67711739
O     -1.99805673     0.00229459     0.03255758
H     -2.48810425    -0.82857388     0.00821286
H     -2.57705581     0.67881140    -0.33790112
O      0.03490869     2.00379946    -0.02262564
H      0.87424195     2.47882756     0.00891184
H     -0.63397952     2.59469590     0.34264752
O     -0.04110673    -2.00090412     0.01928617
H      0.32969075    -2.58791934    -0.65003327
H     -0.01957052    -2.48292173     0.85503604
O     -0.02335704    -0.03443703     2.01013610
H      0.64673125     0.32917260     2.60066351
H     -0.86173179    -0.00312356     2.48694523
O      0.04222789     0.02195209    -1.99570249
H      0.02213333     0.85819769    -2.47678138
H     -0.33103770    -0.64605967    -2.58269351
19
E_Eh=-30.55576071 rel_kcal=1.133 rel_kJ_per_mol=4.74
Zn     0.01012426     0.00589973     0.02635412
O      2.01316515    -0.00141651    -0.00081099
H      2.53775517    -0.78300324     0.21089347
H      2.55614548     0.76736933     0.21150863
O     -1.98674440     0.01459564     0.06978047
H     -2.48471702     0.02804694     0.89591869
H     -2.62744273    -0.03391485    -0.64839125
O      0.03232897     2.01079559    -0.00167955
H     -0.65257110     2.54228218     0.42236518
H      0.26036749     2.47103181    -0.81882308
O      0.02457522    -1.99904253     0.04213633
H      0.18176852    -2.49174934    -0.77287963
H     -0.60905674    -2.51732407     0.55281158
O     -0.01224398     0.02684761     2.02872208
H      0.23440300     0.81009048     2.53514450
H      0.24115533    -0.73559874     2.56293897
O      0.06765236    -0.01327900    -1.97286295
H      0.90983417    -0.02603284    -2.44311414
H     -0.63101535     0.00625952    -2.63642595
