32
E_Eh=-61.57462753 rel_kcal=0.000 rel_kJ_per_mol=0.00
Zn    -4.63596826     0.24552518    -0.68024092
C      3.85647601    -0.88315277     0.56470782
O      2.61225691    -0.24483006     0.28934064
C      1.51117947    -1.02520048     0.32470331
O      1.59746446    -2.22175421     0.58366518
C      0.28077739    -0.31600980     0.03381427
C     -0.92151172    -1.03554440     0.03449490
C     -2.12629229    -0.41013102    -0.24005490
O     -3.28715593    -1.04028531    -0.25192497
C     -2.12204394     0.98132896    -0.52300954
O     -3.25539368     1.60268363    -0.79166467
C     -0.91116329     1.68963995    -0.51675158
O     -0.94924868     3.03647735    -0.79249517
C      0.28091940     1.05551605    -0.24319268
H      3.84409889    -1.31135969     1.56861038
H      4.60710337    -0.10350277     0.48025684
H      4.03535914    -1.68258764    -0.15660256
H     -0.89776879    -2.09356402     0.25200535
H     -1.88966509     3.24810702    -0.94278520
H      1.20044853     1.61726990    -0.24401712
O     -6.12270899    -1.24742947    -0.59699134
H     -5.67443793    -2.05992210    -0.33165025
H     -6.82603898    -1.10514194     0.05095726
O     -6.16683453     1.61439277    -1.12020669
H     -6.78279529     1.34411363    -1.81467170
H     -5.79997883     2.46207669    -1.39955848
O     -5.22362193     0.61578092     1.37338962
H     -4.62257815     0.33628674     2.07296232
H     -5.56138850     1.48808101     1.61631934
O     -4.69941084    -0.09909721    -2.82513690
H     -3.94020229     0.19315646    -3.34157194
H     -4.92237453    -0.98839282    -3.12905443
32
E_Eh=-61.57457136 rel_kcal=0.035 rel_kJ_per_mol=0.15
Zn    -4.66660212     0.36464195    -0.66520141
C      3.79991935    -0.95237687     0.56883614
O      2.56928953    -0.28584504     0.29929053
C      1.45330178    -1.04526384     0.31781455
O      1.51565930    -2.24784445     0.55492988
C      0.23768788    -0.30722136     0.03677599
C     -0.97825556    -1.00323584     0.02155787
C     -2.17033188    -0.34924618    -0.24159723
O     -3.34302239    -0.95665851    -0.26680623
C     -2.13895949     1.04740661    -0.49621216
O     -3.25979319     1.69610000    -0.75253525
C     -0.91441179     1.73151391    -0.47578261
O     -0.92574353     3.08389070    -0.72560934
C      0.26480343     1.06912248    -0.21365017
H      3.77757400    -1.39071166     1.56818922
H      4.56636214    -0.18732398     0.49348919
H      3.96328747    -1.74771378    -0.16063499
H     -0.97533115    -2.06562274     0.21808348
H     -1.86170587     3.31686118    -0.87184924
H      1.19497512     1.61295937    -0.20275886
O     -6.17993625    -1.10204175    -0.60933754
H     -5.74687010    -1.93059497    -0.36931253
H     -6.87648287    -0.96380245     0.04682512
O     -6.17368191     1.77259453    -1.06212212
H     -6.80471148     1.53166121    -1.75396526
H     -5.79262037     2.61883271    -1.32650172
O     -5.23333958     0.70647954     1.39879748
H     -4.63124403     0.40333339     2.08749409
H     -5.55531723     1.57857270     1.66264295
O     -4.74227659     0.07173473    -2.81771374
H     -4.97730452    -0.80728953    -3.14187712
H     -3.98179019     0.36686093    -3.33075079
32
E_Eh=-61.57446007 rel_kcal=0.105 rel_kJ_per_mol=0.44
Zn    -4.63822585     0.32714443    -0.72708703
C      3.82135179    -0.85884449     0.67205114
O      2.58896817    -0.21613103     0.35657145
C      1.47935797    -0.98423333     0.39334998
O      1.54885441    -2.17468904     0.68367045
C      0.26119744    -0.27002524     0.06565295
C     -0.94929363    -0.97562985     0.07176569
C     -2.14350681    -0.34391543    -0.23263026
O     -3.31100885    -0.96172283    -0.24433703
C     -2.12019676     1.03943419    -0.55172466
O     -3.24424260     1.66727309    -0.84313704
C     -0.90090911     1.73325583    -0.55357759
O     -0.91992344     3.07221139    -0.86696452
C      0.28065703     1.09293070    -0.25029842
H      3.79062464    -1.24820168     1.69127840
H      4.58288703    -0.09221565     0.56829551
H      3.99922431    -1.68739595    -0.01585573
H     -0.94045969    -2.02726940     0.31923651
H     -1.85531356     3.28927569    -1.03902263
H      1.20695679     1.64338695    -0.25783761
O     -6.15464583    -1.13508029    -0.57805885
H     -6.66698103    -1.29027245    -1.38312147
H     -5.70863048    -1.96753452    -0.37943748
O     -6.13969534     1.68418567    -1.27865404
H     -5.79808149     2.58557356    -1.32537425
H     -6.90340246     1.71415396    -0.68677932
O     -5.27714350     0.85264554     1.28564519
H     -5.69128823     0.14865089     1.80190953
H     -4.65472069     1.30084037     1.86914203
O     -4.66840135    -0.21058021    -2.83244223
H     -4.87700804     0.45290680    -3.50325203
H     -3.93241184    -0.73390902    -3.16828541
32
E_Eh=-61.57440190 rel_kcal=0.142 rel_kJ_per_mol=0.59
Zn    -4.70224815     0.42742194    -0.63249779
C      3.75446745    -0.96150369     0.59191176
O      2.53116129    -0.29187912     0.29784385
C      1.40320574    -1.02936510     0.37740294
O      1.44896024    -2.21580235     0.68813258
C      0.19616956    -0.28867334     0.06766380
C     -1.03190173    -0.96183157     0.11447052
C     -2.21612566    -0.30335324    -0.17162260
O     -3.39986656    -0.88949375    -0.14845492
C     -2.16412751     1.07375882    -0.51329961
O     -3.27799985     1.72705199    -0.78659657
C     -0.92728477     1.73420975    -0.55890760
O     -0.91922181     3.06678548    -0.89837504
C      0.24399712     1.06764812    -0.27299108
H      3.74058200    -1.33387961     1.61782384
H      4.53239195    -0.21668095     0.45588724
H      3.89282138    -1.80505391    -0.08679715
H     -1.04402394    -2.00946818     0.37825933
H     -1.85236778     3.30392014    -1.05591626
H      1.18406161     1.59275008    -0.31320274
O     -6.24321095    -1.01013490    -0.45566934
H     -5.80109176    -1.82935777    -0.20117153
H     -6.72465487    -1.20945704    -1.27010950
O     -6.19009436     1.80638005    -1.15260367
H     -5.88842563     2.71737239    -1.04991549
H     -7.02119678     1.73905995    -0.66356280
O     -5.29341191     0.98877566     1.38993976
H     -5.73703328     0.31661357     1.92401526
H     -4.63389807     1.40640507     1.95522467
O     -4.77205654    -0.10866294    -2.74133411
H     -4.94266697     0.58169558    -3.39608728
H     -4.05633076    -0.65513075    -3.08464272
32
E_Eh=-61.57439194 rel_kcal=0.148 rel_kJ_per_mol=0.62
Zn    -4.63817860     0.32198029    -0.71934840
C      2.56241841    -3.02145722     0.99407253
O      1.36843792    -2.31122632     0.67478829
C      1.50054068    -0.99479752     0.40700100
O      2.60219470    -0.45443221     0.44109588
C      0.25015821    -0.33219532     0.09228602
C     -0.96425290    -1.03011872     0.07838823
C     -2.14911761    -0.37803604    -0.22223840
O     -3.32175373    -0.98602985    -0.25256295
C     -2.11498157     1.01140296    -0.51518677
O     -3.23339967     1.65167777    -0.79845850
C     -0.89093331     1.69617848    -0.49996667
O     -0.89721154     3.04034110    -0.79169582
C      0.27986757     1.03630136    -0.20030220
H      3.25853600    -2.98132687     0.15433568
H      2.24798818    -4.04094530     1.19457600
H      3.04113208    -2.57670815     1.86835258
H     -0.98127384    -2.08495900     0.30405100
H     -1.83003812     3.26650959    -0.96720198
H      1.21984060     1.56601828    -0.18857494
O     -6.16382255    -1.14070926    -0.61329928
H     -6.64591253    -1.30716496    -1.43466301
H     -5.71631859    -1.96746942    -0.39467967
O     -6.12398483     1.70506986    -1.23257377
H     -5.80806557     2.61036638    -1.12427650
H     -6.95454153     1.64628482    -0.74146690
O     -5.28171465     0.79211227     1.30672806
H     -5.75160261     0.09675908     1.78624057
H     -4.63356483     1.16294809     1.91545315
O     -4.66248043    -0.15992288    -2.83792745
H     -4.84969254     0.53596990    -3.48195376
H     -3.92507573    -0.67597604    -3.18241026
32
E_Eh=-61.57343056 rel_kcal=0.751 rel_kJ_per_mol=3.14
Zn    -4.67286112     0.36435620    -0.68764910
C      3.79000215    -0.83729912     0.64201056
O      2.55921667    -0.19818773     0.31345633
C      1.44375518    -0.95444011     0.39646164
O      1.50703295    -2.13123589     0.73985432
C      0.22852182    -0.24617583     0.04742811
C     -0.98711858    -0.94182307     0.09135961
C     -2.17782106    -0.31717488    -0.23882588
O     -3.34883441    -0.93025292    -0.22130378
C     -2.14665445     1.04894244    -0.62382601
O     -3.26367219     1.66677641    -0.95586693
C     -0.92287005     1.73458758    -0.65731701
O     -0.93531374     3.05748278    -1.03305225
C      0.25536599     1.10143530    -0.32857230
H      3.77046834    -1.17791428     1.67879868
H      4.55693718    -0.08389585     0.49156914
H      3.95029425    -1.69900327    -0.00851149
H     -0.98397798    -1.98136099     0.38588676
H     -1.87233750     3.27564307    -1.19530817
H      1.18497465     1.64530620    -0.36314337
O     -6.22332289    -1.03230935    -0.44880757
H     -6.94589936    -1.13823436    -1.08160465
H     -5.88873420    -1.91409075    -0.24617453
O     -6.16901926     1.74821734    -1.17693154
H     -6.47689085     1.82222562    -2.08990623
H     -5.89182440     2.63274694    -0.90979688
O     -5.15055265     0.90819354     1.33887106
H     -4.66612781     0.43366276     2.02429257
H     -6.08662760     0.86550715     1.58365700
O     -4.72199240    -0.14722007    -2.82844927
H     -4.38126996    -1.02746669    -3.02998055
H     -4.20174768     0.46899723    -3.35832943
32
E_Eh=-61.57318432 rel_kcal=0.906 rel_kJ_per_mol=3.79
Zn    -4.65749930     0.33109230    -0.70651228
C      3.81333788    -0.87036586     0.59117285
O      2.57806589    -0.22522504     0.29241288
C      1.46959141    -0.99519408     0.32731497
O      1.54241002    -2.18864659     0.60434658
C      0.24871324    -0.27928297     0.01381345
C     -0.95966171    -0.98878662     0.01096533
C     -2.15619053    -0.35729495    -0.28543972
O     -3.32217665    -0.97789461    -0.30476113
C     -2.13553886     1.02987119    -0.58709126
O     -3.25877238     1.65838913    -0.87855392
C     -0.91929876     1.72893078    -0.57556454
O     -0.94765655     3.07220441    -0.86887716
C      0.26430449     1.08876073    -0.28071394
H      3.78596966    -1.28326370     1.60117533
H      4.57187650    -0.09876860     0.50351785
H      3.99299674    -1.68207883    -0.11608979
H     -0.94705451    -2.04376658     0.24350121
H     -1.88720262     3.28666371    -1.02434407
H      1.18878793     1.64229857    -0.27822647
O     -6.20040631    -1.06550516    -0.50897329
H     -6.97602037    -1.02133470    -1.08381162
H     -5.91560965    -1.98637928    -0.46897082
O     -6.19123639     1.68927094    -1.13530898
H     -6.13971000     2.17872113    -1.96542446
H     -6.30909545     2.34515088    -0.43677989
O     -5.15427291     0.81186224     1.35371485
H     -5.82243746     0.23818466     1.75513087
H     -4.42423892     0.86621795     1.97956868
O     -4.69992996    -0.08269803    -2.85561416
H     -4.55162750    -0.99290571    -3.14213444
H     -4.07270841     0.46096551    -3.34659207
32
E_Eh=-61.57308890 rel_kcal=0.966 rel_kJ_per_mol=4.04
Zn    -4.63499779     0.29071064    -0.70106278
C      3.82584929    -0.81659685     0.71153130
O      2.58808617    -0.18656989     0.39109259
C      1.49038771    -0.97233994     0.39536556
O      1.57469952    -2.16729829     0.66223247
C      0.26606529    -0.27085843     0.06269626
C     -0.93311145    -0.99480293     0.03811037
C     -2.13259623    -0.37695368    -0.27506671
O     -3.28838872    -1.01291615    -0.32173216
C     -2.12437157     1.01057428    -0.57365399
O     -3.25184329     1.62707675    -0.87988987
C     -0.91725906     1.72390519    -0.54139653
O     -0.95422317     3.06759962    -0.83321601
C      0.26941348     1.09761300    -0.22907125
H      3.78275378    -1.23739836     1.71770438
H      4.57491791    -0.03367036     0.64574573
H      4.03201723    -1.62041565     0.00251171
H     -0.91226618    -2.04991357     0.26976785
H     -1.89131201     3.27085425    -1.01395199
H      1.18679850     1.66255791    -0.21087795
O     -6.13780064    -1.16629394    -0.45144754
H     -6.45886433    -1.63308496    -1.23388445
H     -5.72502323    -1.83561107     0.10685624
O     -6.16532651     1.63171065    -1.19922749
H     -6.94895919     1.37035318    -1.70017427
H     -5.90534787     2.50853586    -1.50610475
O     -5.13865594     0.81870765     1.31604366
H     -4.74383026     1.60444420     1.71180061
H     -6.07791996     0.82978285     1.55113139
O     -4.71538300    -0.30155657    -2.82006444
H     -4.47244993     0.35137057    -3.48860987
H     -4.14375286    -1.06478800    -2.96446794
32
E_Eh=-61.57270210 rel_kcal=1.208 rel_kJ_per_mol=5.06
Zn    -4.67595418     0.32564236    -0.79337981
C      3.72373667    -0.85778728     0.81247789
O      2.49383090    -0.20879370     0.50008041
C      1.38102944    -0.97293552     0.53295675
O      1.44632190    -2.16454358     0.82062753
C      0.16672911    -0.25422863     0.20304275
C     -1.04423048    -0.95898102     0.18635107
C     -2.23443732    -0.32385732    -0.12502571
O     -3.40230747    -0.94145054    -0.14945712
C     -2.20817246     1.06318883    -0.42502595
O     -3.32765148     1.69890046    -0.71500193
C     -0.98828350     1.75575109    -0.40588067
O     -1.00466476     3.09871985    -0.70241419
C      0.18970355     1.11242250    -0.09660346
H      3.69598968    -1.24149175     1.83393206
H      4.48951750    -0.09655127     0.70053834
H      3.89247919    -1.69108540     0.12800617
H     -1.03810455    -2.01409539     0.41918389
H     -1.93662026     3.31233599    -0.89623490
H      1.11597782     1.66301934    -0.08729752
O     -6.16951390    -1.18159246    -0.82731147
H     -5.70694511    -2.00620435    -0.63437288
H     -6.88376201    -1.11985521    -0.17887323
O     -6.13279880     1.66600711    -1.48248215
H     -5.86088763     2.59113951    -1.50082297
H     -7.07109237     1.64634034    -1.25135514
O     -5.47491665     0.72401543     1.22396521
H     -5.37222768     1.61805240     1.57385767
H     -5.04546927     0.13627428     1.85688076
O     -4.40646194    -0.10992765    -2.86998817
H     -4.57901804    -1.00392861    -3.19248233
H     -4.77076519     0.49617516    -3.52998732
32
E_Eh=-61.56985550 rel_kcal=2.994 rel_kJ_per_mol=12.53
Zn    -4.65354141     0.27607459    -0.71199344
C      2.58767801    -3.00185139     0.98614812
O      1.38526519    -2.30422203     0.67290408
C      1.50189707    -0.98512893     0.40893920
O      2.59839246    -0.43089320     0.44222846
C      0.24644116    -0.33533308     0.09972516
C     -0.96592533    -1.03589225     0.07966187
C     -2.14821390    -0.38279993    -0.21899761
O     -3.31384297    -1.00405383    -0.25269447
C     -2.13474062     1.01650565    -0.50737884
O     -3.26741370     1.61328179    -0.78251597
C     -0.90691586     1.70233017    -0.48385158
O     -0.92372538     3.05099008    -0.76829998
C      0.26064750     1.03451084    -0.18536245
H      3.28126315    -2.95068583     0.14479648
H      2.28576765    -4.02579314     1.18324490
H      3.06369763    -2.55567748     1.86129958
H     -0.98315587    -2.09224358     0.29832615
H     -0.02055286     3.39686993    -0.71880759
H      1.20925939     1.55314909    -0.16446334
O     -6.18242396    -1.16951593    -0.62302815
H     -6.71644743    -1.26905126    -1.42278849
H     -5.76248978    -2.02502426    -0.46956192
O     -6.09924977     1.70614917    -1.24410930
H     -5.64827354     2.55949796    -1.26279297
H     -6.84449711     1.80602278    -0.63656500
O     -5.31300882     0.74807303     1.31049090
H     -5.69443387     0.02776515     1.82963230
H     -4.69866135     1.21704380     1.88602686
O     -4.68154726    -0.19608990    -2.84097413
H     -4.87409693     0.52173563    -3.45833739
H     -3.93192027    -0.68508312    -3.19817968
