33
E_Eh=-61.76648637 rel_kcal=0.000 rel_kJ_per_mol=0.00
Zn    -4.79318951     0.31714847    -0.74175738
C      3.86520847    -0.73306301     0.73020816
O      2.60072744    -0.15246121     0.42449840
C      1.54380754    -0.97861328     0.40454209
O      1.65347818    -2.17578516     0.63321092
C      0.28564446    -0.30928763     0.09098406
C     -0.88134207    -1.07738151     0.05454864
C     -2.08557838    -0.47685646    -0.23082642
O     -3.27964717    -1.15679323    -0.28508814
C     -2.17119578     0.90103288    -0.48804486
O     -3.31522624     1.48387343    -0.75604420
C     -0.97951825     1.66125012    -0.45197805
O     -1.06130428     2.99648731    -0.70567522
C      0.22814486     1.06438922    -0.16570922
H      3.84626584    -1.16826543     1.73087479
H      4.58324508     0.07910606     0.67339155
H      4.10337506    -1.51711198     0.00941689
H     -0.80195138    -2.13478592     0.25575170
H     -3.13295871    -2.09458532    -0.09377767
H     -2.00105685     3.19184243    -0.88394475
H      1.12415258     1.66184129    -0.14114687
O     -6.13060362    -1.17043121    -0.65173335
H     -6.11376345    -1.76548553     0.10765801
H     -7.06228119    -1.01918840    -0.85821079
O     -6.22150405     1.69498225    -1.15721693
H     -6.64063842     1.66554477    -2.02882164
H     -5.94698512     2.61224148    -1.02654476
O     -5.14636410     0.56416741     1.28459182
H     -4.46856377     0.98836310     1.82248586
H     -5.99866302     0.87992090     1.61749793
O     -4.67575632    -0.10700375    -2.74573926
H     -4.87959643    -0.97879479    -3.11003422
H     -3.98869716     0.28262972    -3.29878894
33
E_Eh=-61.76644555 rel_kcal=0.026 rel_kJ_per_mol=0.11
Zn    -4.79184558     0.26768257    -0.71944654
C      3.88924606    -0.72433581     0.66881625
O      2.61452514    -0.15055788     0.39462361
C      1.56376262    -0.98488261     0.38608036
O      1.68708058    -2.18348549     0.60063001
C      0.29539019    -0.32297006     0.10031685
C     -0.86483031    -1.10140111     0.06831523
C     -2.07791103    -0.50880863    -0.19610221
O     -3.26777571    -1.19930402    -0.23577380
C     -2.17908058     0.87076320    -0.43928911
O     -3.32765970     1.44543256    -0.70032766
C     -0.99417328     1.64237540    -0.40249936
O     -1.09355132     2.97891298    -0.64028187
C      0.22180703     1.05389746    -0.13609339
H      3.89631361    -1.16329686     1.66799335
H      4.60076949     0.09250349     0.59844249
H      4.11541503    -1.50428407    -0.06029492
H     -0.77293180    -2.16056249     0.25443529
H     -3.10013617    -2.14933830    -0.14936876
H     -2.03853450     3.16451871    -0.80235853
H      1.11245922     1.65935560    -0.11286721
O     -6.17030182    -1.15603437    -0.67517176
H     -6.22302519    -1.85583463    -1.33711062
H     -6.57995955    -1.48721127     0.13369934
O     -6.18605427     1.60935429    -1.22506180
H     -6.00675151     2.54757441    -1.36280768
H     -7.14360610     1.49771774    -1.15261390
O     -5.19516594     0.49606596     1.29761881
H     -5.50799915     1.34653749     1.63281110
H     -4.60098606     0.13970136     1.96857297
O     -4.56814265    -0.22285439    -2.71497285
H     -5.23697098     0.09174605    -3.33935562
H     -3.71377210    -0.08008505    -3.13814728
33
E_Eh=-61.76640485 rel_kcal=0.051 rel_kJ_per_mol=0.21
Zn    -4.79122638     0.28727901    -0.69035686
C      3.90670629    -0.75998822     0.55768180
O      2.63118708    -0.17808326     0.30524307
C      1.57717467    -1.00834627     0.29799141
O      1.69825135    -2.20999691     0.49634275
C      0.30833117    -0.33815527     0.03503221
C     -0.85542850    -1.11154628     0.00597797
C     -2.06874604    -0.51032417    -0.23642311
O     -3.26229011    -1.19502423    -0.27300166
C     -2.16759483     0.87287441    -0.46051880
O     -3.31742564     1.45481218    -0.69720523
C     -0.97891202     1.63893175    -0.42769023
O     -1.07410188     2.97912446    -0.64548160
C      0.23745461     1.04188591    -0.18284094
H      3.92077194    -1.21909726     1.54766768
H      4.61955164     0.05654525     0.49794655
H      4.12528383    -1.52550618    -0.18882178
H     -0.76601797    -2.17342487     0.17729402
H     -3.10104514    -2.14531677    -0.17713479
H     -2.01918531     3.17189801    -0.79732258
H      1.13070508     1.64361235    -0.16157325
O     -6.16739840    -1.12873391    -0.61114198
H     -6.34146760    -1.73697688    -1.33951663
H     -6.54789359    -1.50783732     0.19045333
O     -6.18780099     1.65524289    -1.13833753
H     -5.99116849     2.59650240    -1.21939394
H     -7.14023486     1.56392425    -0.99849595
O     -5.13319583     0.50721876     1.34027192
H     -5.42376418     1.35626215     1.69760007
H     -4.53609596     0.12576713     1.99432472
O     -4.66736836    -0.17041768    -2.70024728
H     -5.23960314     0.32658117    -3.30127369
H     -3.81521105    -0.25561665    -3.14278322
33
E_Eh=-61.76640438 rel_kcal=0.051 rel_kJ_per_mol=0.22
Zn    -4.78183655     0.30144764    -0.76777526
C      2.69276604    -2.95901188     1.03568218
O      1.47889825    -2.28634190     0.71309398
C      1.56286264    -0.96955993     0.45420354
O      2.62951520    -0.37335957     0.49348754
C      0.27576409    -0.36227549     0.13304656
C     -0.89963591    -1.11765006     0.11218521
C     -2.09221853    -0.50435337    -0.19749535
O     -3.29555461    -1.16898642    -0.23985334
C     -2.15975132     0.86695219    -0.49519562
O     -3.29388429     1.45358929    -0.79373443
C     -0.96088861     1.61516983    -0.46603668
O     -1.02563316     2.94533022    -0.75038603
C      0.23408599     1.00581674    -0.15705180
H      3.39667739    -2.88473593     0.20505132
H      2.41574487    -3.99225093     1.22042610
H      3.14827918    -2.51108715     1.92045135
H     -0.85088462    -2.17003638     0.33968766
H     -3.16350721    -2.10630233    -0.03362390
H     -1.96424435     3.14762353    -0.92895156
H      1.14651982     1.58064924    -0.13686672
O     -6.14242590    -1.16676127    -0.65138548
H     -7.08258192    -0.95446549    -0.72163045
H     -6.00516407    -1.96649641    -1.17461320
O     -6.18300216     1.67435338    -1.28600094
H     -5.82136551     2.47815790    -1.68200425
H     -6.80148216     1.97161216    -0.60374205
O     -5.23115925     0.63986210     1.20520059
H     -5.55148943    -0.07314433     1.77387044
H     -4.73218297     1.24983445     1.76109740
O     -4.59682084    -0.23637899    -2.75796536
H     -5.28078923     0.00913212    -3.39682815
H     -3.75027914    -0.12241001    -3.20475705
33
E_Eh=-61.76630442 rel_kcal=0.114 rel_kJ_per_mol=0.48
Zn    -4.75734829     0.32589997    -0.77953385
C      3.88801436    -0.75633534     0.76241173
O      2.62597337    -0.16958120     0.45823894
C      1.55629825    -0.97834504     0.50204183
O      1.65275561    -2.16378941     0.79051950
C      0.30280924    -0.30748548     0.17413506
C     -0.87233488    -1.06404965     0.17609482
C     -2.07119150    -0.46545801    -0.13554902
O     -3.27298374    -1.13436707    -0.15243857
C     -2.14191691     0.89907573    -0.46086441
O     -3.27550373     1.47891853    -0.77311477
C     -0.94368674     1.65034761    -0.45059618
O     -1.01571336     2.97379204    -0.76114416
C      0.25828285     1.05519560    -0.13870545
H      3.88530779    -1.14617740     1.78176549
H      4.61702530     0.04052149     0.65296677
H      4.09742755    -1.57564325     0.07247805
H     -0.80260261    -2.11221625     0.42381784
H     -3.12925199    -2.07404659     0.03326557
H     -1.95630425     3.16953951    -0.93671081
H      1.16008520     1.64436516    -0.13906633
O     -6.14555645    -1.09007317    -0.71873270
H     -6.15223162    -1.84573484    -1.31884423
H     -6.50921567    -1.38933563     0.12416099
O     -6.13580349     1.66445022    -1.33389492
H     -7.08093230     1.51185818    -1.47096099
H     -5.93585948     2.56420251    -1.62014811
O     -5.22179668     0.66075721     1.20543066
H     -4.53361044     0.62176924     1.87966479
H     -5.78151969     1.41661846     1.42951703
O     -4.43070924    -0.25575314    -2.74039231
H     -5.09352604    -0.15593048    -3.43752767
H     -3.58501043    -0.01490849    -3.13512511
33
E_Eh=-61.76622731 rel_kcal=0.163 rel_kJ_per_mol=0.68
Zn    -4.83238472     0.18808017    -0.77683197
C      3.84460726    -0.63166789     0.70701031
O      2.56300777    -0.08817814     0.40488397
C      1.52510620    -0.93857676     0.41927620
O      1.66546688    -2.12675924     0.67699630
C      0.24890204    -0.30654399     0.10272255
C     -0.89972436    -1.10299668     0.09308284
C     -2.12052886    -0.53933481    -0.19853054
O     -3.29844765    -1.24980362    -0.23012888
C     -2.23777923     0.82908125    -0.48877520
O     -3.39162342     1.38320259    -0.76882565
C     -1.06536770     1.61982046    -0.47462366
O     -1.19089339     2.94553340    -0.75723047
C      0.15811342     1.06001970    -0.18360987
H      3.84404391    -1.05977614     1.71092316
H      4.53971854     0.19941727     0.63920303
H      4.09972615    -1.41418110    -0.00966527
H     -0.79234612    -2.15292750     0.31916625
H     -3.12591393    -2.17551160    -0.00361391
H     -2.14097486     3.10532820    -0.92256610
H      1.04009709     1.67840103    -0.17765757
O     -6.22762319    -1.22840280    -0.73357574
H     -7.12265823    -0.98686719    -1.00566616
H     -6.15599728    -2.18780226    -0.80098567
O     -6.25834948     1.51504930    -1.29946651
H     -6.52453614     2.17147080    -0.64184720
H     -6.14228076     1.99209826    -2.13170807
O     -5.27309276     0.49970457     1.19680204
H     -5.82333318    -0.07714337     1.74415297
H     -4.71243942     1.01161697     1.79043630
O     -4.53394154    -0.27234445    -2.75811932
H     -4.92867022    -0.95943126    -3.31136110
H     -3.80316681     0.11068780    -3.25535541
33
E_Eh=-61.76607144 rel_kcal=0.260 rel_kJ_per_mol=1.09
Zn    -4.76996773     0.25635057    -0.69497921
C      3.90886585    -0.71070636     0.68033783
O      2.63842501    -0.14980362     0.36308759
C      1.58024089    -0.97244547     0.42769210
O      1.69431771    -2.14964811     0.74269577
C      0.31623226    -0.32564714     0.09296893
C     -0.84986360    -1.09530422     0.12997452
C     -2.06059915    -0.51800999    -0.17595069
O     -3.25397658    -1.20279250    -0.16187334
C     -2.15109968     0.83827766    -0.52682619
O     -3.29555567     1.40518106    -0.81905933
C     -0.96057419     1.60113509    -0.56285197
O     -1.05872618     2.91458961    -0.90711864
C      0.25299392     1.02767292    -0.25684522
H      3.90076365    -1.10903680     1.69641454
H      4.62120695     0.10311027     0.58706318
H      4.14644862    -1.51922404    -0.01313804
H     -0.76352810    -2.13619496     0.40225590
H     -3.09443236    -2.12796032     0.07603622
H     -2.00565093     3.08758114    -1.07722952
H      1.14868062     1.62523401    -0.28845845
O     -6.18028808    -1.12622006    -0.49821111
H     -6.14313575    -2.07119186    -0.30961478
H     -7.11155311    -0.87909224    -0.56664338
O     -6.19589340     1.58666817    -1.18797613
H     -6.19253686     1.93183999    -2.09059492
H     -6.35269994     2.34088281    -0.60450850
O     -5.04747863     0.68962453     1.29149976
H     -5.52737975     0.16776769     1.94828673
H     -4.45968939     1.28360176     1.77152313
O     -4.62698855    -0.29889956    -2.66084918
H     -3.88339777    -0.05047348    -3.22116493
H     -5.10504812    -1.00652955    -3.11339298
33
E_Eh=-61.76313781 rel_kcal=2.101 rel_kJ_per_mol=8.79
Zn    -4.80029715     0.27477196    -0.74752108
C      2.72094624    -2.94960802     1.00774129
O      1.49913136    -2.28642144     0.69766479
C      1.57102583    -0.96971976     0.43358921
O      2.63482221    -0.36471649     0.45821748
C      0.27948364    -0.37149251     0.12514281
C     -0.89692517    -1.12517087     0.11764560
C     -2.08748830    -0.50759238    -0.18226327
O     -3.29130191    -1.17396126    -0.21002322
C     -2.17043913     0.86829852    -0.48721070
O     -3.31685097     1.41383371    -0.77041562
C     -0.96495443     1.61376768    -0.47200925
O     -1.05870256     2.94291039    -0.76738689
C      0.22750097     0.99568015    -0.17052392
H      3.41771546    -2.86624843     0.17186792
H      2.45463328    -3.98600939     1.19053690
H      3.17958021    -2.50171588     1.89099381
H     -0.84882530    -2.17721653     0.34718089
H     -3.15417144    -2.11049030    -0.00304080
H     -0.18616521     3.35902106    -0.72312560
H      1.15315929     1.55317810    -0.15579504
O     -6.17288726    -1.18230211    -0.64862173
H     -7.11055822    -0.95876952    -0.71475361
H     -6.04298707    -1.96947655    -1.19250156
O     -6.12393023     1.71094259    -1.30130306
H     -5.64236849     2.49794053    -1.59122226
H     -6.77884505     2.02308591    -0.66103016
O     -5.27790551     0.62432442     1.21800703
H     -5.60245032    -0.07471549     1.80167411
H     -4.77151121     1.24135437     1.75920054
O     -4.61110839    -0.27222264    -2.74438581
H     -5.29576381     0.00816034    -3.36812262
H     -3.76566288    -0.10740909    -3.17719502
33
E_Eh=-61.76284398 rel_kcal=2.286 rel_kJ_per_mol=9.56
Zn    -4.78524028     0.27003413    -0.73961755
C      3.90187419    -0.72037773     0.67745089
O      2.63084534    -0.14859332     0.38410920
C      1.57191888    -0.97671504     0.41710429
O      1.69052830    -2.16478886     0.68659372
C      0.30975730    -0.32057447     0.10455420
C     -0.85947021    -1.08605080     0.10235968
C     -2.06058014    -0.48838083    -0.19234529
O     -3.25643879    -1.16933013    -0.21429267
C     -2.15908593     0.88570414    -0.49756725
O     -3.31190762     1.42017683    -0.77669131
C     -0.96124447     1.64444664    -0.48732635
O     -1.07465242     2.97158919    -0.78245958
C      0.24332708     1.04560450    -0.19148510
H      3.90184574    -1.14071249     1.68462364
H      4.61667882     0.09256933     0.59554294
H      4.13032986    -1.51476124    -0.03518204
H     -0.78273289    -2.13729132     0.33459815
H     -3.10654489    -2.10396334    -0.00895481
H     -0.20796202     3.40077138    -0.74325996
H      1.15330244     1.62566845    -0.18482955
O     -6.14213209    -1.19928443    -0.61569832
H     -7.08563568    -0.99135438    -0.63321545
H     -6.02443374    -1.97508082    -1.17829748
O     -6.12843648     1.69676458    -1.27304124
H     -5.66002955     2.49507883    -1.55368868
H     -6.79155733     1.99091972    -0.63271807
O     -5.23800610     0.61679222     1.23427100
H     -5.53254425    -0.09266607     1.82102484
H     -4.72917349     1.23965216     1.76652680
O     -4.61677500    -0.27906559    -2.73744196
H     -5.29747106     0.01247534    -3.36052068
H     -3.76971301    -0.13877519    -3.17574294
