34
E_Eh=-61.94823246 rel_kcal=0.000 rel_kJ_per_mol=0.00
Zn    -4.95284978     0.14345559    -0.80686257
C      2.63302203    -3.05571076     0.72263850
O      1.42519232    -2.33618345     0.49201776
C      1.50301166    -1.00481210     0.45697456
O      2.54699648    -0.39664915     0.61366539
C      0.19966033    -0.36070190     0.20580868
C     -0.96106878    -1.11571162     0.05803174
C     -2.16117887    -0.46930677    -0.18341949
O     -3.34638211    -1.12400801    -0.34224393
C     -2.20418221     0.91911880    -0.27911050
O     -3.39936041     1.52235489    -0.52412137
C     -1.03605512     1.67595754    -0.12383261
O     -1.18924878     3.01741357    -0.22815628
C      0.16321472     1.03028292     0.11801360
H      3.33359108    -2.88827540    -0.09694285
H      2.34950639    -4.10194804     0.78082023
H      3.09845062    -2.72537405     1.65256030
H     -0.90382266    -2.18819800     0.13400517
H     -3.22474415    -2.08093395    -0.23982473
H     -3.24966772     2.48415691    -0.54912589
H     -0.35467786     3.48848603    -0.10937195
H      1.08470387     1.57777020     0.24148614
O     -6.15922032    -1.35041549    -0.99146668
H     -6.32688462    -1.85852553    -1.79503510
H     -6.69434382    -1.73642261    -0.28642829
O     -6.26309410     1.51305565    -1.23045084
H     -6.16465241     2.47268761    -1.24913165
H     -7.17915027     1.31733148    -1.46762988
O     -5.35179531     0.27354133     1.10814777
H     -5.98773795     0.89227306     1.49068354
H     -4.79117327    -0.03366327     1.82989164
O     -4.42314045     0.00214993    -2.69303794
H     -4.74096206     0.58151538    -3.39759144
H     -3.68396060    -0.50104741    -3.05319946
34
E_Eh=-61.94777685 rel_kcal=0.286 rel_kJ_per_mol=1.20
Zn    -4.98631117     0.10718882    -0.77651358
C      3.81446910    -0.72402785     0.58361694
O      2.53007545    -0.14522582     0.37248226
C      1.49113547    -0.97958755     0.30368092
O      1.60125232    -2.18762284     0.41474720
C      0.20796484    -0.28785452     0.07663839
C     -0.94334414    -1.06470790    -0.02644384
C     -2.16402502    -0.45124160    -0.24558370
O     -3.33931235    -1.13159975    -0.36362157
C     -2.23490732     0.93384734    -0.36133660
O     -3.44654812     1.51328014    -0.58105715
C     -1.07604083     1.71364246    -0.25310330
O     -1.25987786     3.04947064    -0.37711284
C      0.14542195     1.10049550    -0.03489036
H      3.84236183    -1.23768276     1.54580936
H      4.52028207     0.10059487     0.56586893
H      4.03749950    -1.44368321    -0.20562831
H     -0.84716421    -2.13453480     0.06701909
H     -3.19197306    -2.08519576    -0.26714340
H     -3.31271432     2.47660891    -0.63080621
H     -0.43226515     3.53950931    -0.28848914
H      1.05001152     1.67972358     0.04969781
O     -6.16573624    -1.41610700    -0.88189835
H     -6.58624117    -1.85426432    -0.13120490
H     -6.37862169    -1.92676590    -1.67320517
O     -6.34900120     1.44212931    -1.14830725
H     -6.28572315     2.40509037    -1.14192941
H     -7.27588098     1.21911393    -1.30654311
O     -5.28733161     0.25859373     1.15646350
H     -4.68661369    -0.04035698     1.84890447
H     -5.92410605     0.85241476     1.57540275
O     -4.55973299    -0.02192584    -2.68837751
H     -4.96373512     0.53955723    -3.36312114
H     -3.81526325    -0.47188381    -3.10417476
34
E_Eh=-61.94760304 rel_kcal=0.395 rel_kJ_per_mol=1.65
Zn    -4.98054735     0.09393459    -0.78862617
C      3.81851807    -0.67573877     0.59602868
O      2.53159934    -0.10623738     0.37485615
C      1.49376392    -0.94414996     0.34310522
O      1.60710262    -2.14729902     0.49554864
C      0.20743690    -0.26280200     0.10201622
C     -0.94081492    -1.04648768     0.01972002
C     -2.16504163    -0.44428663    -0.21129501
O     -3.33592643    -1.13348255    -0.30673241
C     -2.24070890     0.93764403    -0.35826362
O     -3.45635005     1.50637180    -0.59088492
C     -1.08524918     1.72476160    -0.27162213
O     -1.27528011     3.05674686    -0.42646699
C      0.13941729     1.12220975    -0.04160799
H      3.84720954    -1.17686950     1.56477524
H      4.52019985     0.15211378     0.56836491
H      4.04651854    -1.40436711    -0.18350900
H     -0.83952183    -2.11330077     0.13881595
H     -3.17466439    -2.08144217    -0.18517092
H     -3.33459786     2.47128940    -0.65193615
H     -0.45062895     3.55314118    -0.34579111
H      1.04161727     1.70713495     0.02770113
O     -6.21156931    -1.40449974    -0.90556097
H     -6.08923540    -2.33702782    -0.69047614
H     -7.14356084    -1.28614057    -1.13115073
O     -6.30561710     1.43568955    -1.20405532
H     -6.76297249     1.98044505    -0.55081053
H     -6.53564268     1.77717004    -2.07765473
O     -5.33003072     0.29296840     1.13085345
H     -4.76844744     0.74782882     1.76896895
H     -5.95976593    -0.23660420     1.63701013
O     -4.49414207    -0.09647970    -2.68039509
H     -3.84992667     0.42324949    -3.17470147
H     -4.78426916    -0.81291021    -3.26003064
34
E_Eh=-61.94703318 rel_kcal=0.753 rel_kJ_per_mol=3.15
Zn    -4.99507381     0.09927037    -0.74659185
C      3.80934905    -0.71051821     0.58561254
O      2.52445333    -0.13656921     0.36443854
C      1.48274487    -0.96981934     0.33839234
O      1.59075739    -2.17309097     0.49404635
C      0.19894114    -0.28311090     0.09944981
C     -0.95611213    -1.05920508     0.04305039
C     -2.17804718    -0.45019389    -0.18166153
O     -3.35469316    -1.13346791    -0.27223506
C     -2.24664901     0.93055201    -0.34357450
O     -3.46251800     1.50485117    -0.55291591
C     -1.08289248     1.70881706    -0.29189872
O     -1.26297882     3.03847775    -0.47186364
C      0.13990961     1.09942907    -0.06994840
H      3.84248921    -1.19381622     1.56323751
H      4.51616166     0.11203575     0.53758322
H      4.02645405    -1.45486620    -0.18208122
H     -0.86142410    -2.12497664     0.17605558
H     -3.21523093    -2.07041796    -0.06647882
H     -3.33109088     2.46185044    -0.67885480
H     -0.43076563     3.52684442    -0.42980905
H      1.04800991     1.67757907    -0.02521674
O     -6.23405516    -1.39732151    -0.86365413
H     -6.02708737    -2.28915186    -1.17017433
H     -7.16986315    -1.24991402    -1.05735161
O     -6.32737804     1.45861892    -1.12287107
H     -6.82595362     1.88526928    -0.41300503
H     -6.35785339     2.05345212    -1.88245493
O     -5.35144585     0.27133377     1.17518846
H     -5.88648762    -0.36290157     1.67056714
H     -4.81509597     0.75170762     1.81669678
O     -4.49436367    -0.05953040    -2.64653162
H     -3.68430738    -0.44436835    -3.00038834
H     -5.05774192     0.14776730    -3.40312830
