32
Coordinates from ORCA-job zn_P2_cplx E -2768.973317792164
  Zn     -4.635968      0.245525     -0.680241
  C       3.856476     -0.883153      0.564708
  O       2.612257     -0.244830      0.289341
  C       1.511179     -1.025200      0.324703
  O       1.597464     -2.221754      0.583665
  C       0.280777     -0.316010      0.033814
  C      -0.921512     -1.035544      0.034495
  C      -2.126292     -0.410131     -0.240055
  O      -3.287156     -1.040285     -0.251925
  C      -2.122044      0.981329     -0.523010
  O      -3.255394      1.602684     -0.791665
  C      -0.911163      1.689640     -0.516752
  O      -0.949249      3.036477     -0.792495
  C       0.280919      1.055516     -0.243193
  H       3.844099     -1.311360      1.568610
  H       4.607103     -0.103503      0.480257
  H       4.035359     -1.682588     -0.156603
  H      -0.897769     -2.093564      0.252005
  H      -1.889665      3.248107     -0.942785
  H       1.200449      1.617270     -0.244017
  O      -6.122709     -1.247429     -0.596991
  H      -5.674438     -2.059922     -0.331650
  H      -6.826039     -1.105142      0.050957
  O      -6.166835      1.614393     -1.120207
  H      -6.782795      1.344114     -1.814672
  H      -5.799979      2.462077     -1.399558
  O      -5.223622      0.615781      1.373390
  H      -4.622578      0.336287      2.072962
  H      -5.561388      1.488081      1.616319
  O      -4.699411     -0.099097     -2.825137
  H      -3.940202      0.193156     -3.341572
  H      -4.922375     -0.988393     -3.129054
32
Coordinates from ORCA-job zn_P2_cplx E -2768.975674378309
  Zn     -4.648988      0.245927     -0.680725
  C       3.860960     -0.884877      0.575465
  O       2.619638     -0.243126      0.291340
  C       1.524931     -1.024102      0.323947
  O       1.609372     -2.216502      0.585667
  C       0.289245     -0.314097      0.028716
  C      -0.912625     -1.037083      0.030414
  C      -2.123649     -0.413749     -0.241914
  O      -3.287692     -1.045917     -0.251580
  C      -2.121571      0.981315     -0.527632
  O      -3.253249      1.605038     -0.794601
  C      -0.909896      1.685440     -0.523940
  O      -0.949798      3.029086     -0.802558
  C       0.287161      1.057329     -0.251206
  H       3.850741     -1.307091      1.581611
  H       4.616144     -0.107375      0.494074
  H       4.051359     -1.682971     -0.143829
  H      -0.890124     -2.098538      0.248952
  H      -1.885870      3.234381     -0.953114
  H       1.208013      1.625782     -0.255023
  O      -6.144421     -1.254561     -0.610583
  H      -5.701103     -2.070500     -0.350086
  H      -6.839079     -1.116419      0.042385
  O      -6.186073      1.628370     -1.104030
  H      -6.794939      1.365533     -1.802720
  H      -5.818816      2.475360     -1.381225
  O      -5.231104      0.617602      1.384675
  H      -4.621223      0.341586      2.076439
  H      -5.541523      1.495415      1.628666
  O      -4.711508     -0.101068     -2.835806
  H      -3.946319      0.187164     -3.344537
  H      -4.910496     -0.994820     -3.133598
32
Coordinates from ORCA-job zn_P2_cplx E -2768.978808868410
  Zn     -4.679601      0.245651     -0.683030
  C       3.874142     -0.887292      0.578959
  O       2.633721     -0.243132      0.294882
  C       1.548427     -1.023525      0.337217
  O       1.624555     -2.212290      0.593179
  C       0.304748     -0.309460      0.032170
  C      -0.895042     -1.036058      0.036165
  C      -2.114751     -0.419264     -0.236288
  O      -3.281404     -1.057741     -0.242496
  C      -2.117219      0.980341     -0.530370
  O      -3.242446      1.610432     -0.799716
  C      -0.903874      1.676440     -0.528598
  O      -0.945973      3.016919     -0.813989
  C       0.301306      1.059599     -0.254296
  H       3.881642     -1.295490      1.590197
  H       4.635395     -0.113628      0.492838
  H       4.077864     -1.681858     -0.139468
  H      -0.878489     -2.099207      0.258583
  H      -1.879987      3.216354     -0.968760
  H       1.219096      1.637997     -0.262763
  O      -6.197551     -1.274601     -0.650047
  H      -5.767786     -2.101293     -0.399786
  H      -6.878214     -1.140691      0.017274
  O      -6.231409      1.661104     -1.073660
  H      -6.823622      1.409282     -1.789473
  H      -5.860170      2.508208     -1.345840
  O      -5.255456      0.624953      1.409840
  H      -4.619851      0.356478      2.081829
  H      -5.500764      1.523346      1.649724
  O      -4.728769     -0.112589     -2.863909
  H      -3.941687      0.166900     -3.345047
  H      -4.869331     -1.023354     -3.141673
32
Coordinates from ORCA-job zn_P2_cplx E -2768.979473566390
  Zn     -4.695458      0.245258     -0.681681
  C       3.876288     -0.879259      0.608593
  O       2.639094     -0.245004      0.293559
  C       1.558152     -1.032224      0.305848
  O       1.626673     -2.215182      0.590723
  C       0.312976     -0.313954      0.008486
  C      -0.886861     -1.037823      0.021139
  C      -2.107649     -0.421967     -0.244641
  O      -3.272382     -1.063069     -0.243592
  C      -2.112030      0.976861     -0.540594
  O      -3.234853      1.611909     -0.805346
  C      -0.897030      1.670222     -0.544987
  O      -0.939729      3.012131     -0.831214
  C       0.310283      1.054260     -0.277227
  H       3.861872     -1.288102      1.619531
  H       4.634580     -0.100408      0.545522
  H       4.107518     -1.668054     -0.107940
  H      -0.874017     -2.100035      0.244147
  H      -1.875944      3.211717     -0.982123
  H       1.225913      1.633540     -0.291674
  O      -6.225389     -1.283333     -0.665286
  H      -5.801909     -2.117449     -0.427562
  H      -6.894174     -1.149719      0.015686
  O      -6.255206      1.678547     -1.044334
  H      -6.839776      1.431370     -1.769608
  H      -5.880618      2.526274     -1.312025
  O      -5.255703      0.623285      1.428419
  H      -4.597622      0.355051      2.079734
  H      -5.462403      1.534253      1.662996
  O      -4.747289     -0.114220     -2.875155
  H      -3.947304      0.161968     -3.338086
  H      -4.862503     -1.034312     -3.137661
32
Coordinates from ORCA-job zn_P2_cplx E -2768.979822390028
  Zn     -4.714326      0.243043     -0.685840
  C       3.888806     -0.886471      0.559868
  O       2.644070     -0.245668      0.297571
  C       1.554137     -1.020892      0.364805
  O       1.625572     -2.214830      0.608198
  C       0.312542     -0.304392      0.052959
  C      -0.886051     -1.026948      0.060702
  C      -2.103603     -0.415589     -0.218782
  O      -3.262347     -1.062582     -0.221353
  C      -2.108577      0.978227     -0.525343
  O      -3.226741      1.614410     -0.805132
  C      -0.893226      1.673171     -0.524057
  O      -0.935624      3.015886     -0.819420
  C       0.312399      1.060648     -0.243476
  H       3.914545     -1.287777      1.573843
  H       4.650155     -0.115414      0.457368
  H       4.078843     -1.681454     -0.162337
  H      -0.878075     -2.086002      0.291324
  H      -1.873501      3.212520     -0.978268
  H       1.224627      1.641314     -0.255806
  O      -6.253984     -1.297212     -0.703198
  H      -5.839441     -2.138134     -0.471819
  H      -6.916692     -1.158925     -0.014963
  O      -6.280712      1.689813     -1.046680
  H      -6.841674      1.439843     -1.791569
  H      -5.898549      2.537271     -1.307095
  O      -5.285755      0.628679      1.433006
  H      -4.604650      0.364662      2.063525
  H      -5.450566      1.555337      1.646380
  O      -4.735113     -0.129959     -2.890775
  H      -3.911700      0.142623     -3.314692
  H      -4.817293     -1.062666     -3.125296
32
Coordinates from ORCA-job zn_P2_cplx E -2768.980256140935
  Zn     -4.712282      0.243132     -0.683668
  C       3.884355     -0.881758      0.579812
  O       2.642557     -0.244475      0.295258
  C       1.552741     -1.024102      0.338852
  O       1.626398     -2.214310      0.603342
  C       0.312469     -0.308771      0.035163
  C      -0.887470     -1.030023      0.046741
  C      -2.104278     -0.415777     -0.227963
  O      -3.262448     -1.061381     -0.227272
  C      -2.108327      0.977003     -0.531688
  O      -3.228727      1.612796     -0.806367
  C      -0.892902      1.673436     -0.534279
  O      -0.935739      3.016424     -0.827627
  C       0.311462      1.057708     -0.258592
  H       3.887526     -1.289151      1.591787
  H       4.643442     -0.106997      0.494175
  H       4.086398     -1.676020     -0.140106
  H      -0.877563     -2.089368      0.276000
  H      -1.874087      3.213124     -0.981708
  H       1.225232      1.636210     -0.272878
  O      -6.249532     -1.291649     -0.694287
  H      -5.833151     -2.132691     -0.467576
  H      -6.908433     -1.151357     -0.003156
  O      -6.276032      1.686058     -1.041312
  H      -6.838003      1.434362     -1.784603
  H      -5.893036      2.533507     -1.300055
  O      -5.274681      0.621870      1.433113
  H      -4.589550      0.354520      2.057477
  H      -5.444953      1.547664      1.644558
  O      -4.741279     -0.123270     -2.883870
  H      -3.918758      0.150576     -3.307807
  H      -4.833845     -1.054760     -3.117818
32
Coordinates from ORCA-job zn_P2_cplx E -2768.980523949011
  Zn     -4.715711      0.242527     -0.682247
  C       3.880884     -0.878252      0.587488
  O       2.640309     -0.241852      0.293794
  C       1.549517     -1.023381      0.328041
  O       1.627553     -2.211857      0.603083
  C       0.311393     -0.311087      0.028540
  C      -0.889817     -1.031496      0.042403
  C      -2.105746     -0.414902     -0.231022
  O      -3.262816     -1.059803     -0.227994
  C      -2.108352      0.975898     -0.534296
  O      -3.230472      1.610529     -0.806942
  C      -0.893202      1.674567     -0.539758
  O      -0.937231      3.017008     -0.833441
  C       0.309338      1.056469     -0.265573
  H       3.871923     -1.290341      1.597608
  H       4.637905     -0.101438      0.508222
  H       4.084262     -1.674075     -0.130475
  H      -0.877776     -2.090714      0.272208
  H      -1.876312      3.212302     -0.984555
  H       1.224611      1.632934     -0.281041
  O      -6.252134     -1.285537     -0.693785
  H      -5.836419     -2.128941     -0.475572
  H      -6.902486     -1.140784      0.004253
  O      -6.275739      1.683095     -1.037920
  H      -6.829686      1.428033     -1.785887
  H      -5.888388      2.529844     -1.291983
  O      -5.269817      0.612328      1.432091
  H      -4.570351      0.342483      2.038684
  H      -5.430673      1.541761      1.632903
  O      -4.744322     -0.117207     -2.877365
  H      -3.914010      0.155194     -3.285692
  H      -4.838733     -1.050774     -3.100126
32
Coordinates from ORCA-job zn_P2_cplx E -2768.980650887026
  Zn     -4.723591      0.241502     -0.681432
  C       3.878732     -0.875945      0.588252
  O       2.638174     -0.238903      0.292857
  C       1.546464     -1.020967      0.326982
  O       1.628141     -2.208941      0.605119
  C       0.309331     -0.311541      0.028145
  C      -0.892604     -1.032045      0.043352
  C      -2.108458     -0.414408     -0.230636
  O      -3.265234     -1.058748     -0.226019
  C      -2.109845      0.974995     -0.534905
  O      -3.233140      1.607868     -0.806955
  C      -0.895304      1.675554     -0.542434
  O      -0.941313      3.016736     -0.837578
  C       0.306076      1.056571     -0.267942
  H       3.866534     -1.289694      1.597672
  H       4.634527     -0.098323      0.508449
  H       4.079668     -1.674306     -0.127612
  H      -0.878253     -2.091019      0.274687
  H      -1.881038      3.209958     -0.987218
  H       1.222553      1.631608     -0.284024
  O      -6.260783     -1.278365     -0.698442
  H      -5.847886     -2.125811     -0.491311
  H      -6.898140     -1.128800      0.010297
  O      -6.278782      1.681392     -1.035635
  H      -6.818461      1.423187     -1.792720
  H      -5.884863      2.526900     -1.283440
  O      -5.269188      0.600332      1.430502
  H      -4.547504      0.329918      2.010047
  H      -5.407604      1.536473      1.615265
  O      -4.745973     -0.110595     -2.871382
  H      -3.901466      0.156738     -3.252578
  H      -4.833269     -1.048790     -3.075717
32
Coordinates from ORCA-job zn_P2_cplx E -2768.980867325279
  Zn     -4.732976      0.240229     -0.681150
  C       3.876818     -0.874786      0.584261
  O       2.635530     -0.236634      0.292033
  C       1.543874     -1.018519      0.331660
  O       1.626577     -2.206660      0.607713
  C       0.306076     -0.310380      0.031177
  C      -0.895708     -1.031881      0.047080
  C      -2.112195     -0.414884     -0.228358
  O      -3.269823     -1.058392     -0.222884
  C      -2.113144      0.974457     -0.534084
  O      -3.237010      1.605298     -0.806283
  C      -0.899353      1.675999     -0.542522
  O      -0.947436      3.015891     -0.839126
  C       0.302041      1.057600     -0.267028
  H       3.868770     -1.287097      1.594262
  H       4.632441     -0.097401      0.499921
  H       4.075077     -1.675134     -0.130051
  H      -0.879317     -2.090617      0.280083
  H      -1.887483      3.207471     -0.988600
  H       1.219214      1.631944     -0.283203
  O      -6.271948     -1.270568     -0.704485
  H      -5.863175     -2.122758     -0.508853
  H      -6.894111     -1.117665      0.016905
  O      -6.282545      1.680630     -1.035613
  H      -6.805497      1.420751     -1.803706
  H      -5.881716      2.524812     -1.276991
  O      -5.270542      0.587676      1.428584
  H      -4.524077      0.319435      1.977452
  H      -5.382037      1.530831      1.595829
  O      -4.744963     -0.103961     -2.866147
  H      -3.883428      0.154434     -3.214590
  H      -4.820434     -1.047590     -3.049640
32
Coordinates from ORCA-job zn_P2_cplx E -2768.980922076760
  Zn     -4.736528      0.239447     -0.681381
  C       3.875384     -0.874798      0.580715
  O       2.633508     -0.236501      0.291800
  C       1.542782     -1.017990      0.335986
  O       1.623649     -2.206444      0.608646
  C       0.303604     -0.308987      0.033480
  C      -0.897401     -1.031503      0.049221
  C      -2.114490     -0.415996     -0.227003
  O      -3.273265     -1.058749     -0.221777
  C      -2.116079      0.974428     -0.533286
  O      -3.239861      1.604370     -0.805697
  C      -0.902598      1.675566     -0.541382
  O      -0.951130      3.015269     -0.838351
  C       0.299752      1.058379     -0.265284
  H       3.873037     -1.284207      1.591881
  H       4.631755     -0.098209      0.492874
  H       4.073561     -1.675179     -0.133492
  H      -0.880543     -2.090191      0.282679
  H      -1.890973      3.206948     -0.988742
  H       1.216754      1.633001     -0.281254
  O      -6.276782     -1.266640     -0.705737
  H      -5.870404     -2.121279     -0.515296
  H      -6.891465     -1.113983      0.022231
  O      -6.283023      1.680677     -1.037750
  H      -6.798645      1.421866     -1.811219
  H      -5.879894      2.524752     -1.276087
  O      -5.270244      0.581778      1.427906
  H      -4.513120      0.316442      1.964142
  H      -5.373285      1.527232      1.589356
  O      -4.741679     -0.101069     -2.864538
  H      -3.872048      0.150901     -3.198387
  H      -4.812827     -1.046800     -3.040610
32
Coordinates from ORCA-job zn_P2_cplx E -2768.980935251129
  Zn     -4.737159      0.238764     -0.681696
  C       3.873958     -0.874799      0.579199
  O       2.631837     -0.237199      0.291761
  C       1.542065     -1.018406      0.337843
  O       1.620601     -2.206968      0.608707
  C       0.301773     -0.308009      0.034030
  C      -0.898449     -1.031182      0.049596
  C      -2.115859     -0.417079     -0.226808
  O      -3.275340     -1.059284     -0.221953
  C      -2.118523      0.974441     -0.533149
  O      -3.242066      1.604213     -0.805518
  C      -0.905041      1.674758     -0.540747
  O      -0.953059      3.014980     -0.837499
  C       0.298396      1.058699     -0.264551
  H       3.875227     -1.281591      1.591401
  H       4.631212     -0.098941      0.489990
  H       4.073558     -1.674323     -0.135520
  H      -0.882002     -2.089873      0.282946
  H      -1.892564      3.207505     -0.988758
  H       1.214809      1.634014     -0.280456
  O      -6.278677     -1.264724     -0.704249
  H      -5.873933     -2.121038     -0.517258
  H      -6.889298     -1.113849      0.027702
  O      -6.282001      1.681255     -1.040008
  H      -6.794952      1.424988     -1.816239
  H      -5.878893      2.526125     -1.275968
  O      -5.267883      0.578875      1.428641
  H      -4.506468      0.316728      1.960663
  H      -5.372397      1.524312      1.590332
  O      -4.737332     -0.100230     -2.864844
  H      -3.863888      0.146513     -3.193307
  H      -4.810151     -1.046142     -3.040638
32
Coordinates from ORCA-job zn_P2_cplx E -2768.980961980830
  Zn     -4.737217      0.237937     -0.681945
  C       3.872540     -0.874323      0.579215
  O       2.630385     -0.237702      0.291678
  C       1.541155     -1.018846      0.337618
  O       1.618420     -2.207345      0.608513
  C       0.300345     -0.307611      0.033489
  C      -0.899434     -1.031047      0.049112
  C      -2.116919     -0.417790     -0.227260
  O      -3.276476     -1.059769     -0.222508
  C      -2.120578      0.974308     -0.533494
  O      -3.243983      1.604178     -0.805699
  C      -0.906968      1.674005     -0.540846
  O      -0.954177      3.014905     -0.837314
  C       0.297214      1.058680     -0.264826
  H       3.874778     -1.279670      1.591998
  H       4.630318     -0.098811      0.490184
  H       4.073621     -1.672987     -0.136045
  H      -0.883640     -2.089744      0.282262
  H      -1.893430      3.208233     -0.988964
  H       1.212999      1.634760     -0.280934
  O      -6.280322     -1.263341     -0.702126
  H      -5.877231     -2.121511     -0.519753
  H      -6.887231     -1.114513      0.033465
  O      -6.280860      1.682143     -1.041560
  H      -6.792091      1.428968     -1.820045
  H      -5.878272      2.528277     -1.274114
  O      -5.264142      0.576531      1.430398
  H      -4.499073      0.318303      1.959083
  H      -5.373134      1.521260      1.593452
  O      -4.732540     -0.100264     -2.865816
  H      -3.856073      0.140881     -3.190482
  H      -4.810483     -1.045564     -3.043090
32
Coordinates from ORCA-job zn_P2_cplx E -2768.980971389277
  Zn     -4.737425      0.236302     -0.682319
  C       3.870299     -0.873133      0.579563
  O       2.628078     -0.237837      0.291452
  C       1.539260     -1.019044      0.336548
  O       1.615946     -2.207403      0.608349
  C       0.298178     -0.307398      0.032576
  C      -0.901265     -1.031023      0.048344
  C      -2.118763     -0.418534     -0.228116
  O      -3.277973     -1.060560     -0.223309
  C      -2.123733      0.973980     -0.534183
  O      -3.247096      1.603947     -0.806257
  C      -0.909930      1.673075     -0.541344
  O      -0.955936      3.014865     -0.837484
  C       0.294983      1.058554     -0.265537
  H       3.872536     -1.277404      1.592784
  H       4.628400     -0.097769      0.491248
  H       4.072827     -1.670845     -0.136358
  H      -0.886440     -2.089722      0.281274
  H      -1.894901      3.209128     -0.989440
  H       1.209850      1.635868     -0.282077
  O      -6.283683     -1.260698     -0.698810
  H      -5.883798     -2.122515     -0.526644
  H      -6.883690     -1.115398      0.043248
  O      -6.278990      1.683725     -1.043721
  H      -6.787017      1.436082     -1.826160
  H      -5.877169      2.532297     -1.268791
  O      -5.256844      0.572431      1.434026
  H      -4.484415      0.322286      1.955793
  H      -5.375490      1.515637      1.599095
  O      -4.723607     -0.100915     -2.867650
  H      -3.841469      0.129203     -3.184772
  H      -4.813222     -1.044653     -3.047682
32
Coordinates from ORCA-job zn_P2_cplx E -2768.981011394972
  Zn     -4.738405      0.234027     -0.682585
  C       3.867676     -0.871255      0.580301
  O       2.625351     -0.237038      0.291156
  C       1.536650     -1.018554      0.335171
  O       1.614013     -2.206753      0.608376
  C       0.295705     -0.307456      0.031509
  C      -0.903660     -1.031160      0.047484
  C      -2.121204     -0.419050     -0.229174
  O      -3.279700     -1.061661     -0.223936
  C      -2.127308      0.973481     -0.535172
  O      -3.250831      1.603389     -0.807044
  C      -0.913362      1.672332     -0.542495
  O      -0.958463      3.014682     -0.838601
  C       0.291912      1.058402     -0.266804
  H       3.868777     -1.275366      1.593600
  H       4.625554     -0.095604      0.492835
  H       4.070963     -1.668581     -0.135863
  H      -0.889628     -2.089847      0.280393
  H      -1.897269      3.209489     -0.990597
  H       1.205892      1.637032     -0.283906
  O      -6.289379     -1.256506     -0.695906
  H      -5.894183     -2.123726     -0.541041
  H      -6.878947     -1.116669      0.055558
  O      -6.277109      1.685943     -1.045336
  H      -6.780174      1.445607     -1.833254
  H      -5.875740      2.537675     -1.259006
  O      -5.246775      0.566958      1.439453
  H      -4.462865      0.329168      1.949641
  H      -5.378433      1.508114      1.606051
  O      -4.711825     -0.102217     -2.869845
  H      -3.821312      0.111271     -3.174669
  H      -4.818421     -1.043595     -3.052648
32
Coordinates from ORCA-job zn_P2_cplx E -2768.981044090839
  Zn     -4.739706      0.231954     -0.682565
  C       3.865779     -0.869565      0.580616
  O       2.623323     -0.235417      0.290764
  C       1.534404     -1.017361      0.334511
  O       1.613422     -2.205451      0.608734
  C       0.293855     -0.307590      0.031103
  C      -0.905716     -1.031252      0.047269
  C      -2.123359     -0.419030     -0.229728
  O      -3.281148     -1.062744     -0.223850
  C      -2.129823      0.973103     -0.535863
  O      -3.253664      1.602709     -0.807616
  C      -0.915901      1.672323     -0.543605
  O      -0.961102      3.014450     -0.840079
  C       0.289134      1.058465     -0.267810
  H       3.865509     -1.274462      1.593601
  H       4.622964     -0.093358      0.493270
  H       4.068438     -1.667522     -0.135035
  H      -0.891772     -2.089896      0.280469
  H      -1.899975      3.209029     -0.991872
  H       1.202763      1.637778     -0.285314
  O      -6.295494     -1.251846     -0.695012
  H      -5.904922     -2.124363     -0.560228
  H      -6.874512     -1.118895      0.065776
  O      -6.275764      1.687900     -1.045739
  H      -6.774230      1.454223     -1.838478
  H      -5.874339      2.542306     -1.248035
  O      -5.237520      0.562778      1.444889
  H      -4.442577      0.337966      1.943672
  H      -5.382307      1.501746      1.612563
  O      -4.701015     -0.104314     -2.871638
  H      -3.802531      0.091869     -3.164148
  H      -4.824712     -1.043002     -3.056973
32
Coordinates from ORCA-job zn_P2_cplx E -2768.981046365569
  Zn     -4.740978      0.230761     -0.682162
  C       3.865041     -0.868605      0.580533
  O       2.622491     -0.233740      0.290417
  C       1.533246     -1.016046      0.334758
  O       1.613713     -2.204063      0.609310
  C       0.293008     -0.307541      0.031250
  C      -0.906830     -1.031137      0.047632
  C      -2.124618     -0.418603     -0.229618
  O      -3.282061     -1.063468     -0.223051
  C      -2.130683      0.972991     -0.536101
  O      -3.254844      1.602184     -0.807748
  C      -0.916941      1.672990     -0.544446
  O      -0.963257      3.014278     -0.841553
  C       0.287527      1.058805     -0.268421
  H       3.863955     -1.274478      1.593122
  H       4.621471     -0.091879      0.492544
  H       4.066414     -1.667837     -0.134057
  H      -0.892204     -2.089696      0.281385
  H      -1.902379      3.208019     -0.992984
  H       1.201459      1.637865     -0.286063
  O      -6.300491     -1.247575     -0.696489
  H      -5.913138     -2.124054     -0.580361
  H      -6.871101     -1.122423      0.071828
  O      -6.275227      1.689072     -1.044621
  H      -6.770879      1.459789     -1.840278
  H      -5.873093      2.544871     -1.239075
  O      -5.231627      0.561232      1.448921
  H      -4.429241      0.346397      1.940063
  H      -5.386105      1.498489      1.617241
  O      -4.694331     -0.106754     -2.872433
  H      -3.790333      0.076010     -3.156402
  H      -4.830462     -1.043323     -3.059496
32
Coordinates from ORCA-job zn_P2_cplx E -2768.981072989928
  Zn     -4.742082      0.230370     -0.681343
  C       3.864959     -0.868230      0.580027
  O       2.622359     -0.232477      0.290004
  C       1.532885     -1.014969      0.335534
  O       1.614028     -2.202900      0.610052
  C       0.292695     -0.307179      0.031715
  C      -0.907289     -1.030762      0.048467
  C      -2.125224     -0.418028     -0.228883
  O      -3.282699     -1.063721     -0.221634
  C      -2.130553      0.973096     -0.535898
  O      -3.254945      1.601898     -0.807447
  C      -0.917058      1.673953     -0.544928
  O      -0.964960      3.014237     -0.842739
  C       0.286875      1.059342     -0.268720
  H       3.863845     -1.274594      1.592412
  H       4.620912     -0.091262      0.490922
  H       4.065093     -1.668832     -0.133370
  H      -0.891552     -2.089207      0.282894
  H      -1.904405      3.206939     -0.993730
  H       1.201520      1.637468     -0.286398
  O      -6.304442     -1.243215     -0.699536
  H      -5.919155     -2.122749     -0.601901
  H      -6.867682     -1.127789      0.075623
  O      -6.274951      1.689558     -1.042595
  H      -6.769249      1.462981     -1.839769
  H      -5.871559      2.545701     -1.232568
  O      -5.228366      0.561804      1.451720
  H      -4.421569      0.354328      1.938773
  H      -5.390054      1.497722      1.620586
  O      -4.690764     -0.109453     -2.872150
  H      -3.783105      0.062901     -3.151026
  H      -4.836009     -1.044400     -3.060449
32
Coordinates from ORCA-job zn_P2_cplx E -2768.981069468423
  Zn     -4.743325      0.230506     -0.679821
  C       3.865103     -0.868072      0.579017
  O       2.622467     -0.231578      0.289337
  C       1.532874     -1.014046      0.336604
  O       1.613956     -2.201812      0.611182
  C       0.292474     -0.306433      0.032410
  C      -0.907506     -1.030070      0.049919
  C      -2.125591     -0.417333     -0.227381
  O      -3.283361     -1.063475     -0.219282
  C      -2.130055      0.973362     -0.535245
  O      -3.254592      1.601837     -0.806691
  C      -0.916833      1.675070     -0.545182
  O      -0.966601      3.014340     -0.843869
  C       0.286718      1.060088     -0.268898
  H       3.864705     -1.274130      1.591527
  H       4.620905     -0.091189      0.488277
  H       4.064120     -1.670095     -0.133086
  H      -0.890338     -2.088333      0.285218
  H      -1.906438      3.205837     -0.994299
  H       1.202354      1.636748     -0.286667
  O      -6.308824     -1.237095     -0.704214
  H      -5.925746     -2.119985     -0.631931
  H      -6.862280     -1.137074      0.080037
  O      -6.274439      1.689761     -1.039630
  H      -6.767952      1.465565     -1.837911
  H      -5.869049      2.545596     -1.226649
  O      -5.225841      0.563924      1.454452
  H      -4.415503      0.364148      1.938848
  H      -5.395390      1.498309      1.624047
  O      -4.688046     -0.113088     -2.870698
  H      -3.776869      0.047383     -3.145407
  H      -4.843595     -1.046134     -3.060369
32
Coordinates from ORCA-job zn_P2_cplx E -2768.981093737164
  Zn     -4.744196      0.231487     -0.677674
  C       3.865651     -0.868360      0.577579
  O       2.623028     -0.231555      0.288520
  C       1.533401     -1.013615      0.337625
  O       1.613623     -2.201171      0.612580
  C       0.292644     -0.305458      0.033305
  C      -0.907204     -1.029146      0.051912
  C      -2.125361     -0.416578     -0.225152
  O      -3.283609     -1.062368     -0.216189
  C      -2.129118      0.973845     -0.534062
  O      -3.253617      1.602270     -0.805506
  C      -0.916058      1.675984     -0.544948
  O      -0.967160      3.014657     -0.844565
  C       0.287452      1.060852     -0.268782
  H       3.866567     -1.273220      1.590576
  H       4.621839     -0.092017      0.485156
  H       4.063947     -1.671308     -0.133684
  H      -0.888862     -2.087193      0.288084
  H      -1.907335      3.205193     -0.994495
  H       1.204043      1.635962     -0.286879
  O      -6.312121     -1.230636     -0.709535
  H      -5.930679     -2.116059     -0.664391
  H      -6.855717     -1.149489      0.083759
  O      -6.273676      1.689563     -1.036374
  H      -6.767939      1.466147     -1.834432
  H      -5.866012      2.544199     -1.224142
  O      -5.225559      0.567813      1.456072
  H      -4.414695      0.373148      1.941673
  H      -5.401412      1.500886      1.626502
  O      -4.687704     -0.117016     -2.867936
  H      -3.774707      0.034082     -3.142132
  H      -4.851953     -1.048369     -3.058818
32
Coordinates from ORCA-job zn_P2_cplx E -2768.981080753463
  Zn     -4.744739      0.233228     -0.674939
  C       3.866445     -0.868989      0.576015
  O       2.623918     -0.232487      0.287559
  C       1.534253     -1.013725      0.338283
  O       1.613110     -2.201021      0.614333
  C       0.293188     -0.304498      0.034164
  C      -0.906509     -1.028133      0.054210
  C      -2.124640     -0.415802     -0.222428
  O      -3.283383     -1.060316     -0.212538
  C      -2.128137      0.974539     -0.532533
  O      -3.252416      1.603272     -0.803985
  C      -0.914990      1.676349     -0.544460
  O      -0.966231      3.015106     -0.845037
  C       0.288907      1.061389     -0.268679
  H       3.868883     -1.271684      1.589884
  H       4.623525     -0.093600      0.482087
  H       4.064508     -1.672252     -0.134965
  H      -0.887809     -2.085956      0.291203
  H      -1.906593      3.205260     -0.994596
  H       1.206039      1.635450     -0.287557
  O      -6.314255     -1.224464     -0.714444
  H      -5.934068     -2.111498     -0.696958
  H      -6.847965     -1.164465      0.087498
  O      -6.272667      1.689368     -1.033367
  H      -6.768938      1.464949     -1.829992
  H      -5.862875      2.542142     -1.225444
  O      -5.227415      0.572422      1.456537
  H      -4.418654      0.379893      1.946440
  H      -5.407239      1.504660      1.627426
  O      -4.689443     -0.120523     -2.863974
  H      -3.776232      0.024569     -3.140728
  H      -4.860078     -1.050649     -3.055366
32
Coordinates from ORCA-job zn_P2_cplx E -2768.981096933276
  Zn     -4.745287      0.234851     -0.672126
  C       3.866915     -0.869553      0.574758
  O       2.624560     -0.233626      0.286426
  C       1.534692     -1.013894      0.338520
  O       1.612553     -2.200886      0.616451
  C       0.293627     -0.303842      0.034777
  C      -0.906091     -1.027214      0.056354
  C      -2.124157     -0.415022     -0.219895
  O      -3.283121     -1.058033     -0.208970
  C      -2.127943      0.975314     -0.531230
  O      -3.251995      1.604482     -0.802532
  C      -0.914452      1.676125     -0.544316
  O      -0.964566      3.015421     -0.845939
  C       0.290012      1.061566     -0.269013
  H       3.870377     -1.269620      1.589671
  H       4.624971     -0.095193      0.479394
  H       4.064761     -1.673095     -0.135972
  H      -0.888088     -2.084829      0.294118
  H      -1.904904      3.205880     -0.995306
  H       1.206987      1.635637     -0.289191
  O      -6.316288     -1.219230     -0.717291
  H      -5.938226     -2.107357     -0.727286
  H      -6.839123     -1.179910      0.093159
  O      -6.271465      1.690037     -1.031495
  H      -6.769436      1.464318     -1.826787
  H      -5.860370      2.541337     -1.227751
  O      -5.229018      0.575282      1.457041
  H      -4.421868      0.384372      1.950168
  H      -5.412000      1.506926      1.627845
  O      -4.690217     -0.122904     -2.860110
  H      -3.776723      0.017148     -3.138373
  H      -4.866614     -1.051959     -3.051454
32
Coordinates from ORCA-job zn_P2_cplx E -2768.981119346317
  Zn     -4.745893      0.236324     -0.669331
  C       3.867220     -0.870031      0.573442
  O       2.624977     -0.234607      0.285114
  C       1.534731     -1.013981      0.338656
  O       1.612236     -2.200653      0.618829
  C       0.293958     -0.303599      0.035403
  C      -0.906071     -1.026410      0.058589
  C      -2.124028     -0.414124     -0.217453
  O      -3.283032     -1.055736     -0.205331
  C      -2.128318      0.976192     -0.530092
  O      -3.252161      1.605743     -0.801200
  C      -0.914281      1.675576     -0.544429
  O      -0.962452      3.015539     -0.847072
  C       0.290652      1.061368     -0.269580
  H       3.871348     -1.267677      1.589302
  H       4.625964     -0.096471      0.476563
  H       4.064526     -1.674031     -0.136914
  H      -0.889586     -2.083838      0.297159
  H      -1.902599      3.206906     -0.996298
  H       1.206970      1.636313     -0.291374
  O      -6.318373     -1.215158     -0.717963
  H      -5.943367     -2.103879     -0.755108
  H      -6.829238     -1.195304      0.100809
  O      -6.270098      1.691849     -1.031088
  H      -6.769595      1.464291     -1.824954
  H      -5.858525      2.542058     -1.231231
  O      -5.230706      0.576460      1.457531
  H      -4.424668      0.386536      1.952780
  H      -5.415771      1.507830      1.627558
  O      -4.689814     -0.124286     -2.856579
  H      -3.775863      0.011951     -3.134994
  H      -4.870640     -1.052620     -3.047099
32
Coordinates from ORCA-job zn_P2_cplx E -2768.981139895951
  Zn     -4.746989      0.238058     -0.665434
  C       3.867601     -0.870567      0.571105
  O       2.625358     -0.235329      0.283074
  C       1.534488     -1.013753      0.339219
  O       1.612169     -2.199945      0.622387
  C       0.294191     -0.303478      0.036631
  C      -0.906528     -1.025266      0.062112
  C      -2.124330     -0.412628     -0.213910
  O      -3.283360     -1.052920     -0.199842
  C      -2.129068      0.977510     -0.528505
  O      -3.252709      1.607282     -0.799385
  C      -0.914246      1.675061     -0.544738
  O      -0.959900      3.015518     -0.848923
  C       0.290945      1.060983     -0.270337
  H       3.872613     -1.265667      1.587947
  H       4.626753     -0.097700      0.471748
  H       4.063455     -1.675735     -0.138320
  H      -0.892225     -2.082428      0.301938
  H      -1.899742      3.208340     -0.997802
  H       1.206323      1.637298     -0.294463
  O      -6.322109     -1.210029     -0.717257
  H      -5.953317     -2.098726     -0.794724
  H      -6.813762     -1.217271      0.113323
  O      -6.268003      1.695646     -1.031692
  H      -6.769414      1.465352     -1.823562
  H      -5.856182      2.544665     -1.236267
  O      -5.232965      0.576798      1.458639
  H      -4.427350      0.388797      1.955226
  H      -5.420748      1.507886      1.627090
  O      -4.687449     -0.126050     -2.852181
  H      -3.772080      0.004392     -3.128442
  H      -4.873916     -1.053562     -3.041006
32
Coordinates from ORCA-job zn_P2_cplx E -2768.981174270800
  Zn     -4.747488      0.239513     -0.662704
  C       3.867985     -0.871200      0.569399
  O       2.625738     -0.235628      0.281419
  C       1.534286     -1.013567      0.339688
  O       1.612540     -2.199390      0.624937
  C       0.294510     -0.303770      0.037449
  C      -0.907011     -1.024457      0.064521
  C      -2.124627     -0.411229     -0.211553
  O      -3.283684     -1.051017     -0.195874
  C      -2.129495      0.978743     -0.527538
  O      -3.253034      1.608503     -0.798095
  C      -0.913955      1.674825     -0.545321
  O      -0.957504      3.015379     -0.850597
  C       0.291061      1.060397     -0.271175
  H       3.873235     -1.265122      1.586686
  H       4.627043     -0.098528      0.468172
  H       4.062364     -1.677663     -0.138946
  H      -0.894732     -2.081462      0.305260
  H      -1.896971      3.209873     -0.999133
  H       1.205588      1.638067     -0.297109
  O      -6.323928     -1.209004     -0.713627
  H      -5.959806     -2.096990     -0.816669
  H      -6.801577     -1.231825      0.124670
  O      -6.266295      1.700251     -1.034021
  H      -6.770320      1.465908     -1.822970
  H      -5.855305      2.548317     -1.243756
  O      -5.237035      0.575394      1.458442
  H      -4.433350      0.385288      1.957311
  H      -5.422918      1.507197      1.624962
  O      -4.686130     -0.125841     -2.849539
  H      -3.770735      0.005776     -3.125013
  H      -4.870952     -1.054206     -3.035630
32
Coordinates from ORCA-job zn_P2_cplx E -2768.981244821384
  Zn     -4.748122      0.241530     -0.658679
  C       3.868584     -0.872276      0.567046
  O       2.626402     -0.235500      0.279162
  C       1.534219     -1.012964      0.340716
  O       1.612946     -2.198274      0.627979
  C       0.294882     -0.303714      0.038489
  C      -0.907611     -1.023007      0.067759
  C      -2.125040     -0.408966     -0.208232
  O      -3.284380     -1.048874     -0.190056
  C      -2.129334      0.980540     -0.526177
  O      -3.252940      1.609978     -0.796024
  C      -0.913084      1.675539     -0.546535
  O      -0.955424      3.015263     -0.853762
  C       0.291264      1.060121     -0.272552
  H       3.874202     -1.265317      1.584660
  H       4.627356     -0.099800      0.463047
  H       4.060602     -1.681147     -0.139183
  H      -0.896731     -2.079751      0.310005
  H      -1.894574      3.211358     -1.001594
  H       1.205553      1.638280     -0.300631
  O      -6.326761     -1.207398     -0.708608
  H      -5.970394     -2.093104     -0.850144
  H      -6.782663     -1.253146      0.140629
  O      -6.263637      1.707234     -1.036677
  H      -6.772005      1.467186     -1.820968
  H      -5.853275      2.553553     -1.253889
  O      -5.243601      0.573626      1.458441
  H      -4.442807      0.381030      1.960983
  H      -5.427076      1.506289      1.622800
  O      -4.684348     -0.126338     -2.845939
  H      -3.768752      0.006666     -3.120123
  H      -4.865948     -1.056086     -3.028297
32
Coordinates from ORCA-job zn_P2_cplx E -2768.981249280930
  Zn     -4.748090      0.243121     -0.656008
  C       3.869035     -0.873411      0.565111
  O       2.626969     -0.235504      0.277574
  C       1.534422     -1.012589      0.341501
  O       1.612734     -2.197583      0.629407
  C       0.295044     -0.303163      0.039124
  C      -0.907842     -1.021734      0.069924
  C      -2.125152     -0.407283     -0.205920
  O      -3.284898     -1.047656     -0.186075
  C      -2.128503      0.981781     -0.525087
  O      -3.252273      1.610947     -0.794407
  C      -0.912044      1.676824     -0.547264
  O      -0.954922      3.015475     -0.855781
  C       0.291709      1.060444     -0.273417
  H       3.875200     -1.266209      1.582820
  H       4.627799     -0.101239      0.459313
  H       4.059485     -1.683949     -0.139633
  H      -0.896614     -2.078245      0.313322
  H      -1.894063      3.212039     -1.002867
  H       1.206734      1.637524     -0.302495
  O      -6.327857     -1.206843     -0.705016
  H      -5.976154     -2.090127     -0.870757
  H      -6.768486     -1.267127      0.151236
  O      -6.261393      1.712307     -1.038495
  H      -6.773651      1.467939     -1.818829
  H      -5.850902      2.556740     -1.262275
  O      -5.250281      0.572986      1.457805
  H      -4.453081      0.377671      1.965043
  H      -5.431559      1.506235      1.621437
  O      -4.684032     -0.127255     -2.843619
  H      -3.769022      0.008877     -3.118451
  H      -4.860811     -1.058462     -3.023572
32
Coordinates from ORCA-job zn_P2_cplx E -2768.981266486497
  Zn     -4.747780      0.244791     -0.653412
  C       3.869371     -0.874647      0.562783
  O       2.627424     -0.235873      0.276126
  C       1.534694     -1.012387      0.341997
  O       1.611960     -2.197156      0.630124
  C       0.295019     -0.302171      0.039725
  C      -0.907890     -1.020414      0.072132
  C      -2.125131     -0.405840     -0.203465
  O      -3.285344     -1.046400     -0.182080
  C      -2.127476      0.982761     -0.523728
  O      -3.251403      1.611899     -0.792690
  C      -0.911057      1.678249     -0.547547
  O      -0.955150      3.015946     -0.857131
  C       0.292365      1.061167     -0.273943
  H       3.876492     -1.267258      1.580569
  H       4.628518     -0.103045      0.455733
  H       4.058682     -1.686065     -0.141271
  H      -0.895425     -2.076665      0.316609
  H      -1.894482      3.212339     -1.003342
  H       1.208629      1.636277     -0.303693
  O      -6.328649     -1.205544     -0.702047
  H      -5.981191     -2.085745     -0.891131
  H      -6.753010     -1.281045      0.161150
  O      -6.258625      1.716950     -1.040028
  H      -6.774775      1.468775     -1.816570
  H      -5.846977      2.558846     -1.270967
  O      -5.257982      0.573320      1.456924
  H      -4.464965      0.375790      1.969895
  H      -5.438206      1.506807      1.620631
  O      -4.684052     -0.129282     -2.841131
  H      -3.769820      0.009912     -3.117263
  H      -4.856263     -1.061761     -3.019316
32
Coordinates from ORCA-job zn_P2_cplx E -2768.981288776277
  Zn     -4.747337      0.246450     -0.650938
  C       3.869552     -0.875601      0.560322
  O       2.627646     -0.236592      0.274672
  C       1.534866     -1.012438      0.341963
  O       1.610965     -2.197054      0.630368
  C       0.294830     -0.301218      0.040118
  C      -0.907894     -1.019406      0.074164
  C      -2.125123     -0.404853     -0.201061
  O      -3.285749     -1.045069     -0.178253
  C      -2.126651      0.983323     -0.522258
  O      -3.250681      1.612823     -0.790919
  C      -0.910382      1.679234     -0.547525
  O      -0.955653      3.016382     -0.857921
  C       0.293044      1.061841     -0.274389
  H       3.877779     -1.267733      1.578296
  H       4.629272     -0.104640      0.452477
  H       4.058289     -1.687180     -0.143719
  H      -0.893980     -2.075392      0.319569
  H      -1.895302      3.212210     -1.003181
  H       1.210587      1.634796     -0.304701
  O      -6.329488     -1.203439     -0.699129
  H      -5.986139     -2.080147     -0.910575
  H      -6.736075     -1.294377      0.171153
  O      -6.255268      1.721436     -1.041563
  H      -6.774947      1.470103     -1.814762
  H      -5.841475      2.560250     -1.279765
  O      -5.266394      0.573928      1.455935
  H      -4.477601      0.374631      1.974745
  H      -5.446595      1.507349      1.620253
  O      -4.684026     -0.131951     -2.838560
  H      -3.770565      0.010377     -3.115782
  H      -4.852003     -1.065514     -3.015388
32
Coordinates from ORCA-job zn_P2_cplx E -2768.981301724838
  Zn     -4.746880      0.248644     -0.647377
  C       3.869735     -0.876447      0.556731
  O       2.627772     -0.237617      0.272469
  C       1.534925     -1.012537      0.341507
  O       1.609953     -2.196960      0.630766
  C       0.294522     -0.300265      0.040581
  C      -0.907982     -1.018438      0.076980
  C      -2.125276     -0.403890     -0.197625
  O      -3.286345     -1.043044     -0.172762
  C      -2.126046      0.983748     -0.520135
  O      -3.250139      1.614069     -0.788329
  C      -0.909937      1.679837     -0.547368
  O      -0.956236      3.016693     -0.858855
  C       0.293767      1.062432     -0.275040
  H       3.879503     -1.267539      1.575105
  H       4.630157     -0.106268      0.447848
  H       4.057853     -1.687891     -0.147654
  H      -0.892567     -2.074078      0.323564
  H      -1.896362      3.211603     -1.002824
  H       1.212654      1.633031     -0.306364
  O      -6.331509     -1.199214     -0.694783
  H      -5.995365     -2.070042     -0.939663
  H      -6.709886     -1.313807      0.185495
  O      -6.249955      1.727837     -1.043811
  H      -6.773927      1.472911     -1.812989
  H      -5.832193      2.561937     -1.291513
  O      -5.278219      0.574534      1.454981
  H      -4.494496      0.373875      1.980916
  H      -5.460053      1.507477      1.620369
  O      -4.683148     -0.136369     -2.834723
  H      -3.770229      0.009403     -3.112003
  H      -4.846590     -1.071093     -3.009849
32
Coordinates from ORCA-job zn_P2_cplx E -2768.981320065095
  Zn     -4.746628      0.250522     -0.643989
  C       3.869863     -0.876827      0.553791
  O       2.627852     -0.238412      0.270235
  C       1.534880     -1.012579      0.340510
  O       1.609503     -2.196828      0.630953
  C       0.294343     -0.299822      0.040428
  C      -0.908056     -1.017948      0.079049
  C      -2.125518     -0.403343     -0.194700
  O      -3.286875     -1.041172     -0.167722
  C      -2.125934      0.983829     -0.518409
  O      -3.250076      1.615142     -0.785821
  C      -0.909910      1.679739     -0.547612
  O      -0.956731      3.016638     -0.860064
  C       0.294221      1.062610     -0.276271
  H       3.880558     -1.266723      1.572616
  H       4.630763     -0.107177      0.444122
  H       4.057649     -1.688103     -0.150877
  H      -0.891829     -2.073279      0.326713
  H      -1.897349      3.210570     -1.002708
  H       1.213863      1.631786     -0.308803
  O      -6.334295     -1.194437     -0.689972
  H      -6.006228     -2.058585     -0.967642
  H      -6.682344     -1.332339      0.199611
  O      -6.244433      1.734331     -1.045867
  H      -6.771988      1.476863     -1.811795
  H      -5.821766      2.563484     -1.301778
  O      -5.289800      0.574495      1.454729
  H      -4.510072      0.373262      1.986333
  H      -5.474395      1.506650      1.621482
  O      -4.681780     -0.141078     -2.831168
  H      -3.768979      0.008079     -3.106995
  H      -4.841008     -1.076817     -3.004732
32
Coordinates from ORCA-job zn_P2_cplx E -2768.981352910395
  Zn     -4.746657      0.251994     -0.640695
  C       3.870118     -0.876727      0.551389
  O       2.628008     -0.238732      0.267987
  C       1.534848     -1.012480      0.339359
  O       1.609905     -2.196560      0.631151
  C       0.294420     -0.299963      0.040009
  C      -0.908142     -1.017824      0.080663
  C      -2.125836     -0.403034     -0.192101
  O      -3.287388     -1.039473     -0.162945
  C      -2.126278      0.983788     -0.517026
  O      -3.250445      1.615938     -0.783437
  C      -0.910154      1.679056     -0.548158
  O      -0.956793      3.016188     -0.861547
  C       0.294378      1.062294     -0.277787
  H       3.881273     -1.265373      1.570677
  H       4.631085     -0.107247      0.440783
  H       4.057523     -1.688184     -0.153159
  H      -0.892142     -2.072912      0.329301
  H      -1.897794      3.209454     -1.002986
  H       1.214001      1.631345     -0.311801
  O      -6.337890     -1.189046     -0.685346
  H      -6.019027     -2.045406     -0.996080
  H      -6.655084     -1.350593      0.211885
  O      -6.239034      1.740327     -1.047535
  H      -6.769558      1.481407     -1.810931
  H      -5.810821      2.564608     -1.309905
  O      -5.300032      0.574267      1.455539
  H      -4.523039      0.373636      1.991292
  H      -5.488898      1.505243      1.623846
  O      -4.679924     -0.146195     -2.827742
  H      -3.766762      0.005325     -3.100962
  H      -4.836358     -1.082591     -3.000090
32
Coordinates from ORCA-job zn_P2_cplx E -2768.981367330226
  Zn     -4.747186      0.253073     -0.637035
  C       3.870641     -0.876592      0.549330
  O       2.628422     -0.238573      0.265926
  C       1.535031     -1.012090      0.339259
  O       1.610491     -2.195831      0.632559
  C       0.294701     -0.299955      0.040237
  C      -0.908267     -1.017168      0.082929
  C      -2.126060     -0.402155     -0.189148
  O      -3.287859     -1.037878     -0.157728
  C      -2.126532      0.984356     -0.515694
  O      -3.250741      1.616534     -0.781353
  C      -0.910078      1.678830     -0.548905
  O      -0.956168      3.015784     -0.863647
  C       0.294500      1.061984     -0.279158
  H       3.882336     -1.263920      1.569103
  H       4.631453     -0.107230      0.436966
  H       4.057139     -1.689195     -0.154123
  H      -0.893095     -2.072015      0.332728
  H      -1.897226      3.209396     -1.004154
  H       1.213793      1.631501     -0.314973
  O      -6.342021     -1.183800     -0.682398
  H      -6.035389     -2.030836     -1.028738
  H      -6.633461     -1.371622      0.218374
  O      -6.235186      1.744738     -1.048142
  H      -6.768412      1.484430     -1.809144
  H      -5.803458      2.565622     -1.315273
  O      -5.305392      0.574270      1.457514
  H      -4.529447      0.375774      1.995526
  H      -5.498545      1.504242      1.626329
  O      -4.677758     -0.150793     -2.823919
  H      -3.763522     -0.001134     -3.094513
  H      -4.835202     -1.087214     -2.995089
32
Coordinates from ORCA-job zn_P2_cplx E -2768.981429204077
  Zn     -4.748199      0.253796     -0.631595
  C       3.871224     -0.875475      0.548498
  O       2.628899     -0.237768      0.263461
  C       1.535387     -1.011429      0.339348
  O       1.611524     -2.194503      0.635124
  C       0.295158     -0.300264      0.039692
  C      -0.908479     -1.016423      0.085085
  C      -2.126416     -0.401052     -0.185701
  O      -3.288564     -1.036284     -0.150859
  C      -2.127150      0.985124     -0.514657
  O      -3.251539      1.616797     -0.778841
  C      -0.910041      1.678261     -0.551367
  O      -0.954945      3.014697     -0.868452
  C       0.294443      1.061078     -0.282350
  H       3.882864     -1.260332      1.569200
  H       4.631554     -0.106068      0.433510
  H       4.057118     -1.690570     -0.152202
  H      -0.894995     -2.070903      0.336727
  H      -1.895789      3.209698     -1.007871
  H       1.212879      1.631915     -0.320984
  O      -6.349133     -1.176009     -0.677528
  H      -6.065090     -2.007025     -1.077270
  H      -6.605613     -1.403929      0.224443
  O      -6.230159      1.750270     -1.047711
  H      -6.767235      1.488943     -1.805573
  H      -5.794423      2.567310     -1.319858
  O      -5.307949      0.572967      1.462075
  H      -4.531262      0.379205      2.000682
  H      -5.507869      1.501352      1.631561
  O      -4.674294     -0.156302     -2.818711
  H      -3.757805     -0.012592     -3.084889
  H      -4.836600     -1.091956     -2.989342
32
Coordinates from ORCA-job zn_P2_cplx E -2768.981415196006
  Zn     -4.748528      0.253225     -0.629892
  C       3.870932     -0.874337      0.550128
  O       2.628662     -0.237095      0.263000
  C       1.535262     -1.011214      0.338900
  O       1.611815     -2.194042      0.635446
  C       0.295100     -0.300751      0.038264
  C      -0.908781     -1.016515      0.084490
  C      -2.126839     -0.401026     -0.185425
  O      -3.289028     -1.036434     -0.149241
  C      -2.128041      0.985132     -0.515192
  O      -3.252669      1.616303     -0.778366
  C      -0.910605      1.677619     -0.553600
  O      -0.954712      3.013780     -0.871862
  C       0.293869      1.060338     -0.284826
  H       3.881505     -1.258131      1.571241
  H       4.630883     -0.104642      0.434765
  H       4.057540     -1.690580     -0.149027
  H      -0.896324     -2.070868      0.336856
  H      -1.895299      3.209812     -1.011040
  H       1.211585      1.632320     -0.324725
  O      -6.353157     -1.173001     -0.672304
  H      -6.080916     -1.997484     -1.093292
  H      -6.593264     -1.416199      0.230068
  O      -6.227440      1.752920     -1.047767
  H      -6.766204      1.492292     -1.804624
  H      -5.789416      2.568315     -1.321057
  O      -5.306976      0.570261      1.464976
  H      -4.528451      0.379101      2.001850
  H      -5.510064      1.497763      1.635493
  O      -4.672180     -0.157135     -2.818015
  H      -3.754584     -0.015092     -3.081251
  H      -4.836173     -1.092104     -2.990323
32
Coordinates from ORCA-job zn_P2_cplx E -2768.981424121621
  Zn     -4.748570      0.252843     -0.630354
  C       3.870754     -0.874502      0.550323
  O       2.628541     -0.237091      0.263381
  C       1.535145     -1.011114      0.339391
  O       1.611354     -2.193934      0.635783
  C       0.294899     -0.300395      0.038688
  C      -0.908907     -1.016178      0.084958
  C      -2.126880     -0.400811     -0.185283
  O      -3.289019     -1.036615     -0.149445
  C      -2.128087      0.985298     -0.515232
  O      -3.252814      1.616042     -0.778809
  C      -0.910678      1.677973     -0.553602
  O      -0.954778      3.013907     -0.872244
  C       0.293734      1.060603     -0.284548
  H       3.881429     -1.258377      1.571414
  H       4.630871     -0.104981      0.434922
  H       4.057243     -1.690816     -0.148793
  H      -0.896255     -2.070502      0.337423
  H      -1.895225      3.210261     -1.011709
  H       1.211576      1.632386     -0.324490
  O      -6.353433     -1.173585     -0.671141
  H      -6.082143     -1.998837     -1.091453
  H      -6.594500     -1.416133      0.231133
  O      -6.227638      1.752484     -1.048035
  H      -6.766646      1.491700     -1.804668
  H      -5.789700      2.567799     -1.321721
  O      -5.305576      0.569431      1.464900
  H      -4.526536      0.377993      2.000965
  H      -5.507343      1.497310      1.635083
  O      -4.672405     -0.155783     -2.818821
  H      -3.754935     -0.013206     -3.082241
  H      -4.835977     -1.090639     -2.992130
32
Coordinates from ORCA-job zn_P2_cplx E -2768.981427019011
  Zn     -4.748925      0.251450     -0.632190
  C       3.870529     -0.874013      0.552232
  O       2.628377     -0.236726      0.264891
  C       1.535050     -1.010871      0.340440
  O       1.611192     -2.193682      0.636840
  C       0.294811     -0.300231      0.039291
  C      -0.908916     -1.016131      0.085343
  C      -2.126742     -0.400919     -0.185487
  O      -3.288653     -1.037289     -0.150773
  C      -2.128244      0.985097     -0.515930
  O      -3.253181      1.614776     -0.780605
  C      -0.910869      1.677919     -0.554120
  O      -0.954400      3.013628     -0.873619
  C       0.293484      1.060602     -0.284372
  H       3.880797     -1.257858      1.573348
  H       4.630707     -0.104527      0.437057
  H       4.057277     -1.690444     -0.146684
  H      -0.896382     -2.070407      0.337980
  H      -1.894496      3.210713     -1.013930
  H       1.211120      1.632720     -0.324485
  O      -6.355115     -1.173856     -0.668685
  H      -6.085966     -2.000860     -1.087144
  H      -6.598396     -1.414777      0.233433
  O      -6.228132      1.750399     -1.047235
  H      -6.767936      1.490195     -1.803516
  H      -5.788128      2.564302     -1.321926
  O      -5.300715      0.567702      1.465477
  H      -4.519634      0.375523      1.998343
  H      -5.499437      1.496360      1.635178
  O      -4.675176     -0.152286     -2.821365
  H      -3.758347     -0.007403     -3.085740
  H      -4.838053     -1.086575     -2.998399
32
Coordinates from ORCA-job zn_P2_cplx E -2768.981422540546
  Zn     -4.749229      0.251253     -0.632222
  C       3.870874     -0.874206      0.552035
  O       2.628722     -0.236790      0.265602
  C       1.535361     -1.010393      0.342450
  O       1.610617     -2.192975      0.639527
  C       0.294872     -0.299153      0.041190
  C      -0.908646     -1.015185      0.088074
  C      -2.126277     -0.400167     -0.183570
  O      -3.288232     -1.036812     -0.149164
  C      -2.127345      0.985391     -0.515327
  O      -3.252445      1.614235     -0.781484
  C      -0.910160      1.678713     -0.554086
  O      -0.954071      3.013797     -0.874950
  C       0.294074      1.061286     -0.283661
  H       3.882182     -1.257415      1.573400
  H       4.631543     -0.105356      0.435818
  H       4.056909     -1.691061     -0.146605
  H      -0.895001     -2.069198      0.341616
  H      -1.894053      3.211048     -1.015682
  H       1.212557      1.631981     -0.324060
  O      -6.356498     -1.172886     -0.667416
  H      -6.094157     -1.996499     -1.096720
  H      -6.596046     -1.423569      0.233074
  O      -6.227872      1.749614     -1.046036
  H      -6.770375      1.487674     -1.799818
  H      -5.786423      2.561088     -1.325677
  O      -5.298375      0.567657      1.465245
  H      -4.517585      0.373977      1.998050
  H      -5.493688      1.497335      1.633617
  O      -4.678918     -0.150796     -2.821185
  H      -3.762944     -0.005275     -3.088244
  H      -4.841868     -1.084781     -3.000143
32
Coordinates from ORCA-job zn_P2_cplx E -2768.981433756280
  Zn     -4.749117      0.250679     -0.633737
  C       3.870975     -0.873406      0.553694
  O       2.628742     -0.236421      0.266473
  C       1.535462     -1.010439      0.342353
  O       1.611515     -2.193102      0.639447
  C       0.295168     -0.299932      0.040740
  C      -0.908404     -1.016130      0.087001
  C      -2.126125     -0.401007     -0.184537
  O      -3.287989     -1.037350     -0.150648
  C      -2.127438      0.984608     -0.516166
  O      -3.252479      1.613479     -0.782673
  C      -0.910294      1.677724     -0.554572
  O      -0.953828      3.013107     -0.875286
  C       0.294013      1.060642     -0.283935
  H       3.881634     -1.256659      1.575036
  H       4.631254     -0.104093      0.437985
  H       4.057612     -1.690049     -0.145019
  H      -0.895221     -2.070211      0.340299
  H      -1.893827      3.210114     -1.016347
  H       1.212023      1.632120     -0.324081
  O      -6.356901     -1.172863     -0.666270
  H      -6.092887     -1.997819     -1.091859
  H      -6.596375     -1.419761      0.235296
  O      -6.227366      1.749379     -1.045346
  H      -6.770914      1.488209     -1.798635
  H      -5.783291      2.559080     -1.326015
  O      -5.297814      0.567456      1.465439
  H      -4.517030      0.372117      1.997592
  H      -5.492092      1.497172      1.634548
  O      -4.682055     -0.149945     -2.822676
  H      -3.767254     -0.000093     -3.091271
  H      -4.842195     -1.084076     -3.003184
32
Coordinates from ORCA-job zn_P2_cplx E -2768.981427542356
  Zn     -4.748940      0.250577     -0.634293
  C       3.871080     -0.873100      0.553926
  O       2.628762     -0.236280      0.266651
  C       1.535524     -1.010405      0.342541
  O       1.611883     -2.193057      0.639791
  C       0.295236     -0.300189      0.040858
  C      -0.908310     -1.016525      0.086903
  C      -2.126116     -0.401447     -0.184678
  O      -3.288002     -1.037548     -0.150845
  C      -2.127394      0.984151     -0.516332
  O      -3.252309      1.613255     -0.783172
  C      -0.910339      1.677286     -0.554551
  O      -0.954075      3.012759     -0.875256
  C       0.294021      1.060454     -0.283760
  H       3.881848     -1.256207      1.575309
  H       4.631190     -0.103629      0.438106
  H       4.057779     -1.689688     -0.144821
  H      -0.895059     -2.070628      0.340130
  H      -1.894206      3.209179     -1.016477
  H       1.212012      1.631970     -0.323675
  O      -6.356734     -1.172778     -0.666121
  H      -6.092584     -1.997219     -1.092526
  H      -6.594274     -1.419778      0.235899
  O      -6.226635      1.750154     -1.045015
  H      -6.771242      1.489105     -1.797577
  H      -5.781502      2.558892     -1.326780
  O      -5.298208      0.567833      1.465404
  H      -4.517752      0.371737      1.997718
  H      -5.492292      1.497491      1.634885
  O      -4.683770     -0.150353     -2.822817
  H      -3.769543      0.001218     -3.092400
  H      -4.842551     -1.084699     -3.003377
32
Coordinates from ORCA-job zn_P2_cplx E -2768.981428740622
  Zn     -4.748631      0.250029     -0.635824
  C       3.871166     -0.872477      0.554800
  O       2.628715     -0.235985      0.267327
  C       1.535572     -1.010216      0.343605
  O       1.612230     -2.192728      0.641491
  C       0.295232     -0.300429      0.041498
  C      -0.908194     -1.017061      0.087124
  C      -2.126115     -0.402254     -0.184886
  O      -3.288009     -1.038136     -0.151384
  C      -2.127288      0.983244     -0.516858
  O      -3.251938      1.612582     -0.784807
  C      -0.910428      1.676584     -0.554634
  O      -0.954710      3.012073     -0.875595
  C       0.293998      1.060246     -0.283264
  H       3.882263     -1.254935      1.576408
  H       4.631079     -0.102873      0.438431
  H       4.057919     -1.689256     -0.143695
  H      -0.894625     -2.071146      0.340414
  H      -1.895061      3.207336     -1.017313
  H       1.212080      1.631628     -0.322684
  O      -6.356371     -1.172971     -0.665671
  H      -6.093520     -1.995972     -1.095499
  H      -6.590140     -1.421713      0.236800
  O      -6.225251      1.751756     -1.043797
  H      -6.772707      1.490831     -1.794324
  H      -5.778477      2.558622     -1.328316
  O      -5.296889      0.568305      1.465393
  H      -4.516288      0.370752      1.996912
  H      -5.489495      1.498178      1.635177
  O      -4.688277     -0.150442     -2.823296
  H      -3.775312      0.003999     -3.095548
  H      -4.845028     -1.085042     -3.004339
32
Coordinates from ORCA-job zn_P2_cplx E -2768.981425788083
  Zn     -4.748414      0.249241     -0.637446
  C       3.870999     -0.872108      0.555976
  O       2.628561     -0.235750      0.268118
  C       1.535445     -1.009969      0.344720
  O       1.612086     -2.192326      0.643182
  C       0.295066     -0.300382      0.042097
  C      -0.908216     -1.017248      0.087293
  C      -2.126202     -0.402812     -0.185307
  O      -3.288022     -1.038846     -0.152315
  C      -2.127376      0.982617     -0.517581
  O      -3.251823      1.611948     -0.786560
  C      -0.910657      1.676235     -0.554826
  O      -0.955413      3.011655     -0.876094
  C       0.293802      1.060277     -0.282821
  H       3.882143     -1.253976      1.577799
  H       4.630914     -0.102557      0.439207
  H       4.057804     -1.689212     -0.142120
  H      -0.894415     -2.071317      0.340679
  H      -1.895883      3.206122     -1.018383
  H       1.211906      1.631634     -0.321832
  O      -6.355805     -1.173677     -0.665379
  H      -6.094365     -1.995843     -1.097601
  H      -6.587555     -1.423673      0.237232
  O      -6.224450      1.752999     -1.042462
  H      -6.774219      1.492382     -1.791394
  H      -5.777289      2.559061     -1.328600
  O      -5.293914      0.568277      1.465461
  H      -4.512107      0.370157      1.994987
  H      -5.484947      1.498482      1.635151
  O      -4.692064     -0.149983     -2.823896
  H      -3.779954      0.005759     -3.098314
  H      -4.848135     -1.084636     -3.005320
32
Coordinates from ORCA-job zn_P2_cplx E -2768.981431790747
  Zn     -4.748170      0.247867     -0.640082
  C       3.870550     -0.871595      0.558327
  O       2.628202     -0.235439      0.269616
  C       1.535125     -1.009683      0.346336
  O       1.611582     -2.191846      0.645461
  C       0.294762     -0.300253      0.042787
  C      -0.908338     -1.017376      0.087225
  C      -2.126328     -0.403456     -0.186355
  O      -3.287952     -1.040033     -0.154407
  C      -2.127582      0.981899     -0.519001
  O      -3.251815      1.610977     -0.789357
  C      -0.910981      1.675908     -0.555373
  O      -0.956149      3.011181     -0.877067
  C       0.293447      1.060342     -0.282337
  H       3.881355     -1.252765      1.580419
  H       4.630528     -0.102148      0.441292
  H       4.057619     -1.689212     -0.139098
  H      -0.894424     -2.071419      0.340741
  H      -1.896638      3.205021     -1.020225
  H       1.211470      1.631873     -0.320790
  O      -6.354878     -1.175162     -0.664869
  H      -6.095105     -1.997090     -1.098562
  H      -6.585656     -1.425873      0.237785
  O      -6.223908      1.754352     -1.040195
  H      -6.776677      1.494393     -1.787131
  H      -5.777139      2.560073     -1.327818
  O      -5.288050      0.567743      1.465485
  H      -4.503719      0.369212      1.991142
  H      -5.476449      1.498568      1.634784
  O      -4.697429     -0.148649     -2.825120
  H      -3.786506      0.008363     -3.102791
  H      -4.853246     -1.083241     -3.007178
32
Coordinates from ORCA-job zn_P2_cplx E -2768.981430771994
  Zn     -4.748078      0.247059     -0.641505
  C       3.870201     -0.871292      0.560056
  O       2.627950     -0.235295      0.270545
  C       1.534899     -1.009609      0.346997
  O       1.611232     -2.191695      0.646349
  C       0.294606     -0.300231      0.042821
  C      -0.908443     -1.017413      0.086791
  C      -2.126374     -0.403682     -0.187292
  O      -3.287850     -1.040728     -0.156038
  C      -2.127734      0.981661     -0.520022
  O      -3.251949      1.610450     -0.790841
  C      -0.911125      1.675812     -0.555939
  O      -0.956234      3.010986     -0.877833
  C       0.293231      1.060312     -0.282396
  H       3.880437     -1.252197      1.582262
  H       4.630221     -0.101879      0.443165
  H       4.057641     -1.689219     -0.136912
  H      -0.894673     -2.071435      0.340389
  H      -1.896620      3.204965     -1.021375
  H       1.211093      1.632123     -0.320634
  O      -6.354516     -1.175919     -0.664218
  H      -6.095618     -1.998057     -1.098110
  H      -6.584866     -1.426934      0.238483
  O      -6.223876      1.754936     -1.038768
  H      -6.777979      1.495514     -1.784904
  H      -5.777754      2.560930     -1.326609
  O      -5.284483      0.567022      1.465432
  H      -4.498440      0.368688      1.988641
  H      -5.471776      1.498129      1.634526
  O      -4.700004     -0.147823     -2.825888
  H      -3.789711      0.009705     -3.105316
  H      -4.855907     -1.082354     -3.008209
32
Coordinates from ORCA-job zn_P2_cplx E -2768.981427457371
  Zn     -4.748052      0.246560     -0.642497
  C       3.869995     -0.871098      0.561462
  O       2.627830     -0.235216      0.271371
  C       1.534808     -1.009631      0.347256
  O       1.611082     -2.191737      0.646520
  C       0.294602     -0.300273      0.042652
  C      -0.908437     -1.017480      0.086209
  C      -2.126287     -0.403773     -0.188216
  O      -3.287637     -1.041186     -0.157570
  C      -2.127733      0.981581     -0.520859
  O      -3.252000      1.610112     -0.791821
  C      -0.911100      1.675791     -0.556416
  O      -0.955983      3.010921     -0.878334
  C       0.293175      1.060254     -0.282529
  H       3.879643     -1.252133      1.583634
  H       4.630026     -0.101638      0.445034
  H       4.057851     -1.689043     -0.135382
  H      -0.894847     -2.071505      0.339802
  H      -1.896237      3.205259     -1.022099
  H       1.210886      1.632326     -0.320602
  O      -6.354396     -1.176290     -0.663658
  H      -6.095565     -1.998888     -1.096805
  H      -6.584518     -1.427109      0.239191
  O      -6.224123      1.755190     -1.037576
  H      -6.778907      1.496190     -1.783363
  H      -5.778589      2.561549     -1.325311
  O      -5.282356      0.566481      1.465151
  H      -4.495202      0.368402      1.986813
  H      -5.469107      1.497733      1.634123
  O      -4.701823     -0.147493     -2.826469
  H      -3.792130      0.010784     -3.107405
  H      -4.857365     -1.082110     -3.008660
32
Coordinates from ORCA-job zn_P2_cplx E -2768.981433320136
  Zn     -4.748067      0.246226     -0.643094
  C       3.869895     -0.870901      0.562376
  O       2.627759     -0.235111      0.272004
  C       1.534791     -1.009672      0.347286
  O       1.611104     -2.191853      0.646260
  C       0.294647     -0.300364      0.042443
  C      -0.908383     -1.017615      0.085630
  C      -2.126155     -0.403868     -0.189032
  O      -3.287418     -1.041519     -0.158852
  C      -2.127674      0.981526     -0.521444
  O      -3.252028      1.609861     -0.792386
  C      -0.911040      1.675771     -0.556697
  O      -0.955688      3.010913     -0.878478
  C       0.293171      1.060177     -0.282619
  H       3.879144     -1.252273      1.584430
  H       4.629879     -0.101321      0.446469
  H       4.058107     -1.688667     -0.134587
  H      -0.894907     -2.071658      0.339133
  H      -1.895825      3.205630     -1.022335
  H       1.210779      1.632442     -0.320516
  O      -6.354658     -1.176069     -0.663270
  H      -6.095806     -1.998934     -1.095969
  H      -6.584208     -1.426869      0.239761
  O      -6.224383      1.755217     -1.036673
  H      -6.779232      1.496774     -1.782604
  H      -5.779237      2.562023     -1.323743
  O      -5.281192      0.566170      1.464921
  H      -4.493185      0.368928      1.985615
  H      -5.468606      1.497275      1.633957
  O      -4.702645     -0.147842     -2.826850
  H      -3.793279      0.010649     -3.108706
  H      -4.858158     -1.082514     -3.008783
32
Coordinates from ORCA-job zn_P2_cplx E -2768.981426982278
  Zn     -4.748007      0.245878     -0.644006
  C       3.869921     -0.870667      0.563484
  O       2.627799     -0.234951      0.272955
  C       1.534916     -1.009713      0.347433
  O       1.611339     -2.192019      0.645938
  C       0.294812     -0.300506      0.042356
  C      -0.908189     -1.017878      0.084937
  C      -2.125863     -0.404091     -0.190127
  O      -3.287041     -1.041922     -0.160633
  C      -2.127443      0.981379     -0.522161
  O      -3.251866      1.609498     -0.793279
  C      -0.910855      1.675693     -0.556867
  O      -0.955242      3.010897     -0.878393
  C       0.293286      1.060089     -0.282457
  H       3.878834     -1.252568      1.585342
  H       4.629824     -0.100907      0.448250
  H       4.058524     -1.688058     -0.133816
  H      -0.894768     -2.071969      0.338213
  H      -1.895245      3.205946     -1.022521
  H       1.210809      1.632526     -0.319960
  O      -6.354954     -1.175751     -0.662637
  H      -6.095803     -1.998937     -1.094578
  H      -6.583714     -1.426087      0.240741
  O      -6.224640      1.755299     -1.035583
  H      -6.779935      1.497300     -1.781344
  H      -5.779829      2.562379     -1.322427
  O      -5.280141      0.565963      1.464312
  H      -4.491541      0.369241      1.984296
  H      -5.468065      1.496943      1.633429
  O      -4.704485     -0.148463     -2.827329
  H      -3.795995      0.011405     -3.111202
  H      -4.858942     -1.083416     -3.008721
32
Coordinates from ORCA-job zn_P2_cplx E -2768.981431017054
  Zn     -4.747966      0.245675     -0.644500
  C       3.870027     -0.870439      0.564131
  O       2.627884     -0.234798      0.273531
  C       1.535081     -1.009722      0.347504
  O       1.611606     -2.192102      0.645720
  C       0.294962     -0.300625      0.042278
  C      -0.907990     -1.018139      0.084428
  C      -2.125624     -0.404365     -0.190892
  O      -3.286781     -1.042217     -0.161792
  C      -2.127245      0.981193     -0.522583
  O      -3.251693      1.609221     -0.793845
  C      -0.910724      1.675591     -0.556894
  O      -0.955052      3.010872     -0.878154
  C       0.293400      1.060031     -0.282297
  H       3.878849     -1.252593      1.585893
  H       4.629845     -0.100537      0.449234
  H       4.058882     -1.687586     -0.133387
  H      -0.894496     -2.072279      0.337497
  H      -1.895001      3.205954     -1.022558
  H       1.210913      1.632501     -0.319439
  O      -6.355441     -1.175241     -0.662147
  H      -6.096467     -1.998374     -1.094276
  H      -6.583351     -1.425456      0.241474
  O      -6.224710      1.755330     -1.035002
  H      -6.780219      1.497640     -1.780708
  H      -5.779959      2.562510     -1.321649
  O      -5.279579      0.565856      1.464014
  H      -4.490672      0.369674      1.983725
  H      -5.468226      1.496658      1.633254
  O      -4.705651     -0.149092     -2.827581
  H      -3.797710      0.011629     -3.112726
  H      -4.859391     -1.084237     -3.008609
32
Coordinates from ORCA-job zn_P2_cplx E -2768.981428567080
  Zn     -4.747912      0.245312     -0.645212
  C       3.870123     -0.870110      0.565111
  O       2.627984     -0.234534      0.274354
  C       1.535274     -1.009638      0.347755
  O       1.611867     -2.192083      0.645707
  C       0.295130     -0.300696      0.042249
  C      -0.907708     -1.018457      0.083777
  C      -2.125325     -0.404820     -0.191933
  O      -3.286450     -1.042696     -0.163352
  C      -2.127029      0.980853     -0.523217
  O      -3.251470      1.608766     -0.794777
  C      -0.910632      1.675429     -0.556979
  O      -0.955051      3.010804     -0.877950
  C       0.293503      1.060035     -0.282037
  H       3.878829     -1.252447      1.586799
  H       4.629871     -0.100083      0.450550
  H       4.059261     -1.687025     -0.132597
  H      -0.894032     -2.072666      0.336565
  H      -1.894969      3.205692     -1.022818
  H       1.211016      1.632532     -0.318660
  O      -6.356183     -1.174608     -0.661404
  H      -6.097961     -1.997563     -1.094260
  H      -6.583033     -1.424735      0.242481
  O      -6.224712      1.755349     -1.034315
  H      -6.780590      1.498037     -1.779871
  H      -5.779977      2.562600     -1.320793
  O      -5.278194      0.565529      1.463812
  H      -4.488661      0.370003      1.982809
  H      -5.467419      1.496194      1.633102
  O      -4.707471     -0.149613     -2.827947
  H      -3.800207      0.012138     -3.114666
  H      -4.860371     -1.084967     -3.008637
32
Coordinates from ORCA-job zn_P2_cplx E -2768.981430020684
  Zn     -4.747802      0.245235     -0.645489
  C       3.870226     -0.870023      0.565416
  O       2.628084     -0.234447      0.274641
  C       1.535397     -1.009587      0.347942
  O       1.611995     -2.192038      0.645854
  C       0.295237     -0.300687      0.042331
  C      -0.907541     -1.018570      0.083549
  C      -2.125151     -0.405060     -0.192434
  O      -3.286274     -1.042915     -0.164142
  C      -2.126876      0.980689     -0.523487
  O      -3.251272      1.608612     -0.795234
  C      -0.910552      1.675387     -0.556864
  O      -0.955116      3.010828     -0.877628
  C       0.293600      1.060089     -0.281791
  H       3.878963     -1.252310      1.587121
  H       4.629970     -0.099989      0.450841
  H       4.059382     -1.686920     -0.132304
  H      -0.893749     -2.072816      0.336180
  H      -1.895057      3.205467     -1.022748
  H       1.211143      1.632552     -0.318120
  O      -6.356408     -1.174454     -0.661141
  H      -6.098336     -1.997524     -1.093835
  H      -6.583532     -1.423985      0.242822
  O      -6.224732      1.755261     -1.034327
  H      -6.780730      1.497937     -1.779782
  H      -5.780221      2.562645     -1.320761
  O      -5.277501      0.565403      1.463687
  H      -4.487987      0.369960      1.982743
  H      -5.466873      1.496038      1.632981
  O      -4.708417     -0.149729     -2.828067
  H      -3.801579      0.012694     -3.115755
  H      -4.860791     -1.085211     -3.008552
32
Coordinates from ORCA-job zn_P2_cplx E -2768.981442352162
  Zn     -4.747614      0.244900     -0.646268
  C       3.870294     -0.869741      0.566568
  O       2.628191     -0.234222      0.275460
  C       1.535557     -1.009467      0.348399
  O       1.612149     -2.191913      0.646308
  C       0.295412     -0.300671      0.042376
  C      -0.907245     -1.018789      0.082895
  C      -2.124836     -0.405550     -0.193683
  O      -3.285899     -1.043518     -0.166081
  C      -2.126634      0.980311     -0.524376
  O      -3.250958      1.608184     -0.796495
  C      -0.910430      1.675266     -0.556978
  O      -0.955250      3.010794     -0.877424
  C       0.293723      1.060171     -0.281482
  H       3.878824     -1.251902      1.588322
  H       4.630044     -0.099698      0.452085
  H       4.059631     -1.686688     -0.131042
  H      -0.893313     -2.073084      0.335302
  H      -1.895213      3.205011     -1.023071
  H       1.211243      1.632699     -0.317226
  O      -6.356950     -1.174220     -0.660368
  H      -6.099700     -1.997440     -1.093234
  H      -6.583876     -1.423211      0.243774
  O      -6.224742      1.755249     -1.033929
  H      -6.781187      1.498095     -1.779116
  H      -5.780659      2.562905     -1.320267
  O      -5.275245      0.564851      1.463614
  H      -4.485227      0.369767      1.982042
  H      -5.464679      1.495484      1.632874
  O      -4.710834     -0.149709     -2.828493
  H      -3.804874      0.014077     -3.118148
  H      -4.862204     -1.085410     -3.008690
32
Coordinates from ORCA-job zn_P2_cplx E -2768.981442810874
  Zn     -4.747510      0.244763     -0.646584
  C       3.870239     -0.869580      0.567286
  O       2.628176     -0.234127      0.275848
  C       1.535558     -1.009421      0.348574
  O       1.612134     -2.191854      0.646528
  C       0.295453     -0.300671      0.042272
  C      -0.907153     -1.018875      0.082465
  C      -2.124737     -0.405764     -0.194388
  O      -3.285756     -1.043834     -0.167106
  C      -2.126561      0.980123     -0.524955
  O      -3.250854      1.607997     -0.797167
  C      -0.910404      1.675207     -0.557211
  O      -0.955376      3.010754     -0.877550
  C       0.293738      1.060196     -0.281481
  H       3.878518     -1.251650      1.589080
  H       4.629994     -0.099530      0.452900
  H       4.059741     -1.686612     -0.130178
  H      -0.893199     -2.073183      0.334832
  H      -1.895367      3.204770     -1.023345
  H       1.211221      1.632800     -0.316969
  O      -6.357153     -1.174151     -0.660014
  H      -6.100317     -1.997532     -1.092825
  H      -6.583950     -1.422986      0.244205
  O      -6.224724      1.755209     -1.033700
  H      -6.781222      1.498203     -1.778889
  H      -5.780861      2.563058     -1.319804
  O      -5.273889      0.564469      1.463707
  H      -4.483531      0.369587      1.981698
  H      -5.463302      1.495120      1.632944
  O      -4.712014     -0.149494     -2.828698
  H      -3.806366      0.014814     -3.119028
  H      -4.863027     -1.085274     -3.008800
32
Coordinates from ORCA-job zn_P2_cplx E -2768.981436921377
  Zn     -4.747411      0.244700     -0.646711
  C       3.870085     -0.869348      0.568198
  O       2.628082     -0.234045      0.276168
  C       1.535465     -1.009371      0.348726
  O       1.611999     -2.191752      0.646887
  C       0.295445     -0.300674      0.042012
  C      -0.907119     -1.018944      0.081831
  C      -2.124697     -0.405976     -0.195354
  O      -3.285642     -1.044224     -0.168382
  C      -2.126531      0.979900     -0.525833
  O      -3.250787      1.607846     -0.798019
  C      -0.910409      1.675132     -0.557703
  O      -0.955592      3.010673     -0.877954
  C       0.293702      1.060208     -0.281685
  H       3.877956     -1.251144      1.590102
  H       4.629845     -0.099312      0.453844
  H       4.059823     -1.686639     -0.128902
  H      -0.893219     -2.073250      0.334229
  H      -1.895656      3.204456     -1.023677
  H       1.211108      1.632958     -0.316916
  O      -6.357482     -1.173994     -0.659802
  H      -6.101265     -1.997550     -1.092690
  H      -6.583879     -1.423095      0.244465
  O      -6.224719      1.755069     -1.033412
  H      -6.780754      1.498409     -1.779062
  H      -5.781092      2.563347     -1.318669
  O      -5.272046      0.563907      1.464129
  H      -4.481142      0.369569      1.981494
  H      -5.461712      1.494520      1.633351
  O      -4.713172     -0.149129     -2.828903
  H      -3.807531      0.015221     -3.119240
  H      -4.864149     -1.084939     -3.008872
32
Coordinates from ORCA-job zn_P2_cplx E -2768.981434427803
  Zn     -4.747315      0.244728     -0.646833
  C       3.870018     -0.869278      0.568677
  O       2.628055     -0.234013      0.276411
  C       1.535438     -1.009358      0.348822
  O       1.611980     -2.191734      0.647021
  C       0.295461     -0.300699      0.041915
  C      -0.907098     -1.018988      0.081516
  C      -2.124645     -0.406038     -0.195904
  O      -3.285552     -1.044380     -0.169119
  C      -2.126466      0.979822     -0.526347
  O      -3.250713      1.607780     -0.798594
  C      -0.910355      1.675100     -0.557966
  O      -0.955537      3.010647     -0.878148
  C       0.293719      1.060194     -0.281766
  H       3.877693     -1.251075      1.590582
  H       4.629777     -0.099222      0.454448
  H       4.059894     -1.686591     -0.128360
  H      -0.893259     -2.073292      0.333923
  H      -1.895606      3.204444     -1.023843
  H       1.211080      1.633032     -0.316833
  O      -6.357510     -1.173961     -0.659628
  H      -6.101333     -1.997573     -1.092457
  H      -6.583408     -1.423197      0.244739
  O      -6.224711      1.755059     -1.033093
  H      -6.780616      1.498562     -1.778896
  H      -5.781159      2.563483     -1.318058
  O      -5.271415      0.563748      1.464144
  H      -4.480468      0.369498      1.981475
  H      -5.461262      1.494310      1.633428
  O      -4.714038     -0.149133     -2.829054
  H      -3.808586      0.015703     -3.119703
  H      -4.864563     -1.085049     -3.008853
32
Coordinates from ORCA-job zn_P2_cplx E -2768.981428837692
  Zn     -4.747189      0.244815     -0.647028
  C       3.869950     -0.869260      0.569185
  O       2.628025     -0.233991      0.276801
  C       1.535396     -1.009339      0.349022
  O       1.611929     -2.191725      0.647213
  C       0.295472     -0.300716      0.041910
  C      -0.907082     -1.019028      0.081226
  C      -2.124572     -0.406072     -0.196561
  O      -3.285428     -1.044531     -0.170005
  C      -2.126357      0.979754     -0.527007
  O      -3.250585      1.607702     -0.799480
  C      -0.910269      1.675067     -0.558270
  O      -0.955354      3.010617     -0.878425
  C       0.293747      1.060192     -0.281758
  H       3.877495     -1.251200      1.591038
  H       4.629705     -0.099167      0.455159
  H       4.059949     -1.686482     -0.127929
  H      -0.893326     -2.073325      0.333650
  H      -1.895386      3.204512     -1.024209
  H       1.211045      1.633146     -0.316580
  O      -6.357394     -1.174080     -0.659491
  H      -6.100906     -1.997736     -1.092075
  H      -6.582558     -1.423342      0.245069
  O      -6.224746      1.755092     -1.032486
  H      -6.780499      1.498842     -1.778497
  H      -5.781174      2.563634     -1.317111
  O      -5.270962      0.563723      1.464037
  H      -4.480127      0.369423      1.981511
  H      -5.460985      1.494221      1.633447
  O      -4.715289     -0.149283     -2.829368
  H      -3.810138      0.016465     -3.120434
  H      -4.864885     -1.085397     -3.008910
32
Coordinates from ORCA-job zn_P2_cplx E -2768.981430926272
  Zn     -4.747091      0.244793     -0.647313
  C       3.869850     -0.869078      0.570010
  O       2.627957     -0.233888      0.277344
  C       1.535369     -1.009312      0.349285
  O       1.611906     -2.191695      0.647489
  C       0.295474     -0.300780      0.041852
  C      -0.907059     -1.019149      0.080850
  C      -2.124488     -0.406206     -0.197295
  O      -3.285315     -1.044751     -0.170960
  C      -2.126246      0.979605     -0.527765
  O      -3.250453      1.607492     -0.800546
  C      -0.910177      1.674945     -0.558714
  O      -0.955134      3.010487     -0.878891
  C       0.293782      1.060114     -0.281862
  H       3.877200     -1.251089      1.591834
  H       4.629570     -0.098912      0.456226
  H       4.060106     -1.686217     -0.127130
  H      -0.893338     -2.073440      0.333290
  H      -1.895098      3.204480     -1.024929
  H       1.211050      1.633131     -0.316440
  O      -6.357363     -1.174135     -0.659261
  H      -6.100996     -1.997587     -1.092300
  H      -6.581742     -1.423776      0.245386
  O      -6.224773      1.755129     -1.031515
  H      -6.780593      1.499253     -1.777604
  H      -5.781149      2.563759     -1.315826
  O      -5.269970      0.563654      1.464011
  H      -4.479001      0.369395      1.981288
  H      -5.460146      1.494088      1.633570
  O      -4.716811     -0.149327     -2.829766
  H      -3.811966      0.017082     -3.121403
  H      -4.865852     -1.085534     -3.009268
32
Coordinates from ORCA-job zn_P2_cplx E -2768.981431966354
  Zn     -4.747024      0.244787     -0.647566
  C       3.869748     -0.868925      0.570718
  O       2.627863     -0.233787      0.277901
  C       1.535320     -1.009286      0.349592
  O       1.611857     -2.191671      0.647767
  C       0.295429     -0.300830      0.041886
  C      -0.907090     -1.019226      0.080646
  C      -2.124452     -0.406320     -0.197889
  O      -3.285272     -1.044907     -0.171728
  C      -2.126179      0.979481     -0.528454
  O      -3.250352      1.607277     -0.801625
  C      -0.910112      1.674822     -0.559127
  O      -0.954889      3.010344     -0.879405
  C       0.293787      1.060030     -0.281908
  H       3.876966     -1.251086      1.592486
  H       4.629433     -0.098680      0.457202
  H       4.060227     -1.685916     -0.126538
  H      -0.893405     -2.073500      0.333154
  H      -1.894757      3.204458     -1.025818
  H       1.211057      1.633058     -0.316286
  O      -6.357190     -1.174370     -0.659087
  H      -6.100824     -1.997596     -1.092536
  H      -6.581126     -1.424217      0.245604
  O      -6.224866      1.755169     -1.030534
  H      -6.780746      1.499650     -1.776704
  H      -5.781271      2.563945     -1.314488
  O      -5.269051      0.563619      1.463943
  H      -4.477939      0.369307      1.980974
  H      -5.459194      1.494032      1.633617
  O      -4.718155     -0.149252     -2.830205
  H      -3.813529      0.017656     -3.122242
  H      -4.866762     -1.085533     -3.009700
