32
Coordinates from ORCA-job zn_P2_cplx E -2768.981431966354
  Zn         -4.74702372860266      0.24478661203920     -0.64756619618368
  C           3.86974773585296     -0.86892542287575      0.57071843317430
  O           2.62786280861517     -0.23378716394225      0.27790099047168
  C           1.53532039702087     -1.00928562279747      0.34959153450759
  O           1.61185688678854     -2.19167103679750      0.64776659627314
  C           0.29542887656165     -0.30082968045212      0.04188623926642
  C          -0.90708997258284     -1.01922647287826      0.08064602963921
  C          -2.12445174339848     -0.40631978279040     -0.19788927528250
  O          -3.28527196497072     -1.04490727149411     -0.17172835405654
  C          -2.12617934912542      0.97948116528883     -0.52845393090221
  O          -3.25035158423911      1.60727722897607     -0.80162531101416
  C          -0.91011206169741      1.67482165823890     -0.55912685138470
  O          -0.95488881253263      3.01034361160965     -0.87940529913392
  C           0.29378653832081      1.06003007202801     -0.28190849690003
  H           3.87696642822571     -1.25108579478338      1.59248603563295
  H           4.62943269692193     -0.09867989684045      0.45720223262406
  H           4.06022691659869     -1.68591590030907     -0.12653808006562
  H          -0.89340481272417     -2.07350046565973      0.33315350887526
  H          -1.89475741607748      3.20445841700710     -1.02581816890186
  H           1.21105667445567      1.63305753086965     -0.31628611889752
  O          -6.35718971700192     -1.17436965728113     -0.65908734914804
  H          -6.10082387795973     -1.99759648241146     -1.09253635213555
  H          -6.58112586152413     -1.42421693559075      0.24560397797768
  O          -6.22486636745623      1.75516900296951     -1.03053360728095
  H          -6.78074628735940      1.49964952222227     -1.77670396396266
  H          -5.78127132653320      2.56394539295840     -1.31448806721866
  O          -5.26905095593973      0.56361877360300      1.46394251450986
  H          -4.47793920262742      0.36930705878801      1.98097401709451
  H          -5.45919408211219      1.49403199673502      1.63361673312380
  O          -4.71815496073437     -0.14925216730672     -2.83020508566631
  H          -3.81352878445001      0.01765565117711     -3.12224197149560
  H          -4.86676197971258     -1.08553339030018     -3.00970017353991
