34
Coordinates from ORCA-job zn_P0_cplx E -2769.856438364900
  Zn     -4.952850      0.143456     -0.806863
  C       2.633022     -3.055711      0.722638
  O       1.425192     -2.336183      0.492018
  C       1.503012     -1.004812      0.456975
  O       2.546996     -0.396649      0.613665
  C       0.199660     -0.360702      0.205809
  C      -0.961069     -1.115712      0.058032
  C      -2.161179     -0.469307     -0.183419
  O      -3.346382     -1.124008     -0.342244
  C      -2.204182      0.919119     -0.279110
  O      -3.399360      1.522355     -0.524121
  C      -1.036055      1.675958     -0.123833
  O      -1.189249      3.017414     -0.228156
  C       0.163215      1.030283      0.118014
  H       3.333591     -2.888275     -0.096943
  H       2.349506     -4.101948      0.780820
  H       3.098451     -2.725374      1.652560
  H      -0.903823     -2.188198      0.134005
  H      -3.224744     -2.080934     -0.239825
  H      -3.249668      2.484157     -0.549126
  H      -0.354678      3.488486     -0.109372
  H       1.084704      1.577770      0.241486
  O      -6.159220     -1.350415     -0.991467
  H      -6.326885     -1.858526     -1.795035
  H      -6.694344     -1.736423     -0.286428
  O      -6.263094      1.513056     -1.230451
  H      -6.164652      2.472688     -1.249132
  H      -7.179150      1.317331     -1.467630
  O      -5.351795      0.273541      1.108148
  H      -5.987738      0.892273      1.490684
  H      -4.791173     -0.033663      1.829892
  O      -4.423140      0.002150     -2.693038
  H      -4.740962      0.581515     -3.397591
  H      -3.683961     -0.501047     -3.053199
34
Coordinates from ORCA-job zn_P0_cplx E -2769.861122375092
  Zn     -4.966084      0.147066     -0.808267
  C       2.653678     -3.039770      0.739792
  O       1.434746     -2.339942      0.493912
  C       1.508853     -1.012789      0.451290
  O       2.549724     -0.405299      0.607443
  C       0.204719     -0.369149      0.198226
  C      -0.957456     -1.121516      0.048811
  C      -2.151754     -0.470815     -0.188606
  O      -3.342548     -1.121136     -0.346869
  C      -2.192075      0.914169     -0.280352
  O      -3.388542      1.522350     -0.519241
  C      -1.026730      1.663146     -0.127667
  O      -1.183071      3.001995     -0.231626
  C       0.171513      1.020697      0.111582
  H       3.360306     -2.867081     -0.073537
  H       2.384758     -4.090927      0.794707
  H       3.101587     -2.708033      1.677413
  H      -0.917026     -2.200292      0.120904
  H      -3.229824     -2.075263     -0.248515
  H      -3.249682      2.481901     -0.542033
  H      -0.343044      3.461424     -0.112839
  H       1.091242      1.579677      0.232893
  O      -6.188633     -1.356837     -0.998122
  H      -6.357664     -1.859144     -1.801766
  H      -6.718839     -1.744103     -0.294066
  O      -6.281479      1.537610     -1.228473
  H      -6.174810      2.494442     -1.242266
  H      -7.195376      1.348354     -1.466036
  O      -5.361764      0.263363      1.125373
  H      -5.986569      0.886489      1.510972
  H      -4.794396     -0.046005      1.839554
  O      -4.432479      0.001818     -2.710163
  H      -4.742006      0.587108     -3.409097
  H      -3.691278     -0.499847     -3.065568
34
Coordinates from ORCA-job zn_P0_cplx E -2769.868216562350
  Zn     -5.001748      0.152465     -0.813620
  C       2.696259     -3.022350      0.755653
  O       1.460487     -2.345316      0.500878
  C       1.532188     -1.022198      0.456663
  O       2.570577     -0.413377      0.598639
  C       0.226320     -0.377238      0.198693
  C      -0.938399     -1.125547      0.049378
  C      -2.123853     -0.467057     -0.185639
  O      -3.324892     -1.106596     -0.344928
  C      -2.160783      0.912039     -0.275597
  O      -3.358561      1.521575     -0.508448
  C      -0.999043      1.650876     -0.127907
  O      -1.157029      2.990385     -0.234677
  C       0.199337      1.011109      0.110353
  H       3.406571     -2.836217     -0.050214
  H       2.446673     -4.080398      0.793568
  H       3.119582     -2.704904      1.708188
  H      -0.937706     -2.208656      0.115433
  H      -3.235777     -2.061441     -0.252220
  H      -3.251752      2.482109     -0.533467
  H      -0.303366      3.424914     -0.115274
  H       1.107298      1.594360      0.225401
  O      -6.266511     -1.386607     -1.013251
  H      -6.434397     -1.881520     -1.819996
  H      -6.790462     -1.774083     -0.306700
  O      -6.332370      1.598995     -1.239886
  H      -6.201143      2.551661     -1.245636
  H      -7.246124      1.423444     -1.481742
  O      -5.399356      0.239562      1.171503
  H      -6.006942      0.875272      1.560450
  H      -4.814120     -0.071754      1.869247
  O      -4.449830     -0.017871     -2.758941
  H      -4.742995      0.577560     -3.454246
  H      -3.700133     -0.519535     -3.093897
34
Coordinates from ORCA-job zn_P0_cplx E -2769.869590102875
  Zn     -5.020022      0.150401     -0.814718
  C       2.698304     -3.027501      0.779676
  O       1.470304     -2.344163      0.501916
  C       1.551317     -1.021220      0.429390
  O       2.586696     -0.410790      0.592802
  C       0.243895     -0.373869      0.181978
  C      -0.920941     -1.122184      0.035996
  C      -2.108673     -0.461704     -0.191359
  O      -3.310604     -1.096210     -0.349093
  C      -2.148039      0.918560     -0.275843
  O      -3.348391      1.519317     -0.500490
  C      -0.983781      1.658498     -0.131013
  O      -1.136421      3.002020     -0.232384
  C       0.216397      1.014968      0.100071
  H       3.418318     -2.856641     -0.020574
  H       2.440240     -4.083147      0.826388
  H       3.109337     -2.702969      1.735170
  H      -0.928684     -2.204405      0.095570
  H      -3.230444     -2.053464     -0.263832
  H      -3.260629      2.482098     -0.525315
  H      -0.278671      3.429729     -0.115238
  H       1.120292      1.603336      0.211720
  O      -6.299944     -1.409811     -1.021515
  H      -6.466251     -1.900065     -1.831837
  H      -6.815808     -1.804284     -0.312365
  O      -6.360809      1.622642     -1.235701
  H      -6.218153      2.573863     -1.233773
  H      -7.275550      1.453464     -1.479901
  O      -5.417067      0.213685      1.195389
  H      -6.010521      0.861004      1.588093
  H      -4.812647     -0.088008      1.880853
  O      -4.464827     -0.025882     -2.782809
  H      -4.747757      0.581717     -3.472379
  H      -3.702466     -0.515322     -3.107110
34
Coordinates from ORCA-job zn_P0_cplx E -2769.869757065699
  Zn     -5.037245      0.144740     -0.818989
  C       2.705101     -3.040116      0.722913
  O       1.473485     -2.340297      0.515960
  C       1.551262     -1.013137      0.497983
  O       2.599607     -0.407785      0.594890
  C       0.248643     -0.364841      0.229967
  C      -0.915574     -1.113270      0.083683
  C      -2.102891     -0.452326     -0.159065
  O      -3.303531     -1.081054     -0.317522
  C      -2.141297      0.929372     -0.259938
  O      -3.341847      1.515698     -0.497357
  C      -0.973127      1.671146     -0.117797
  O      -1.112461      3.016919     -0.236043
  C       0.223993      1.022945      0.128833
  H       3.404374     -2.824065     -0.084758
  H       2.445493     -4.096036      0.717583
  H       3.139146     -2.767203      1.684707
  H      -0.927371     -2.192933      0.155288
  H      -3.234433     -2.039713     -0.225560
  H      -3.272151      2.480114     -0.535993
  H      -0.252762      3.441111     -0.119689
  H       1.126903      1.610827      0.238971
  O      -6.329076     -1.437150     -1.024318
  H      -6.483509     -1.935709     -1.832500
  H      -6.841054     -1.831733     -0.311702
  O      -6.377825      1.637035     -1.270935
  H      -6.221181      2.586364     -1.273154
  H      -7.290875      1.473649     -1.527298
  O      -5.459026      0.213890      1.207118
  H      -6.031886      0.889651      1.584063
  H      -4.834241     -0.054639      1.888417
  O      -4.459102     -0.068297     -2.798361
  H      -4.715448      0.549139     -3.490536
  H      -3.672097     -0.538633     -3.091097
34
Coordinates from ORCA-job zn_P0_cplx E -2769.870569736362
  Zn     -5.039335      0.141774     -0.816554
  C       2.695863     -3.040573      0.757067
  O       1.472278     -2.341190      0.512794
  C       1.555855     -1.015456      0.453182
  O       2.600284     -0.409723      0.586275
  C       0.251434     -0.366424      0.199902
  C      -0.913233     -1.114682      0.057093
  C      -2.102863     -0.453391     -0.174454
  O      -3.302601     -1.081631     -0.329709
  C      -2.143221      0.930102     -0.266098
  O      -3.347261      1.513012     -0.492668
  C      -0.974188      1.672199     -0.126133
  O      -1.111877      3.017814     -0.234036
  C       0.223894      1.021936      0.108849
  H       3.407815     -2.849986     -0.046225
  H       2.431009     -4.094691      0.780150
  H       3.119745     -2.738557      1.714939
  H      -0.917163     -2.194450      0.122976
  H      -3.231526     -2.041072     -0.246301
  H      -3.280520      2.477991     -0.525816
  H      -0.253145      3.444155     -0.119867
  H       1.129884      1.604974      0.218353
  O      -6.326947     -1.439795     -1.027743
  H      -6.481449     -1.934664     -1.838321
  H      -6.828881     -1.846198     -0.314449
  O      -6.380229      1.634599     -1.251728
  H      -6.223210      2.583972     -1.247357
  H      -7.293939      1.474012     -1.508072
  O      -5.455567      0.195348      1.208552
  H      -6.014166      0.881914      1.588425
  H      -4.814742     -0.058453      1.881005
  O      -4.471473     -0.057395     -2.797702
  H      -4.720368      0.575661     -3.478827
  H      -3.672161     -0.507470     -3.089739
34
Coordinates from ORCA-job zn_P0_cplx E -2769.871233464060
  Zn     -5.045446      0.135021     -0.813980
  C       2.686989     -3.040692      0.771729
  O       1.468014     -2.340987      0.513574
  C       1.555041     -1.016924      0.428606
  O       2.598928     -0.412365      0.572358
  C       0.250320     -0.368169      0.183971
  C      -0.915332     -1.116214      0.045973
  C      -2.105718     -0.454409     -0.178405
  O      -3.305280     -1.080561     -0.329185
  C      -2.146935      0.930662     -0.266415
  O      -3.355731      1.506559     -0.484911
  C      -0.977087      1.672982     -0.131444
  O      -1.110203      3.017441     -0.235505
  C       0.220735      1.020208      0.095872
  H       3.403960     -2.860947     -0.029933
  H       2.419120     -4.093348      0.809135
  H       3.110563     -2.723566      1.725153
  H      -0.909566     -2.195861      0.111172
  H      -3.234615     -2.040756     -0.253490
  H      -3.296318      2.472137     -0.515676
  H      -0.252239      3.445593     -0.124164
  H       1.131610      1.596113      0.203151
  O      -6.328295     -1.447895     -1.032289
  H      -6.475157     -1.943706     -1.843775
  H      -6.811481     -1.873372     -0.317102
  O      -6.380476      1.631170     -1.241748
  H      -6.218363      2.579718     -1.232300
  H      -7.293364      1.477169     -1.505187
  O      -5.467568      0.176134      1.208142
  H      -5.993714      0.893833      1.578331
  H      -4.795438     -0.036814      1.864886
  O      -4.481780     -0.060002     -2.794659
  H      -4.704418      0.602951     -3.456781
  H      -3.652759     -0.467440     -3.067342
34
Coordinates from ORCA-job zn_P0_cplx E -2769.871924118645
  Zn     -5.050480      0.128370     -0.811132
  C       2.682290     -3.039173      0.773311
  O       1.463234     -2.341312      0.514829
  C       1.549840     -1.018262      0.418786
  O       2.594734     -0.414551      0.558395
  C       0.244860     -0.370681      0.178018
  C      -0.922129     -1.118777      0.044726
  C      -2.111552     -0.456451     -0.175687
  O      -3.312401     -1.080380     -0.322072
  C      -2.152542      0.929174     -0.263796
  O      -3.365850      1.499364     -0.477311
  C      -0.983198      1.671584     -0.134734
  O      -1.113483      3.014165     -0.239368
  C       0.214118      1.017489      0.088447
  H       3.399334     -2.861144     -0.028903
  H       2.415299     -4.091704      0.816386
  H       3.110292     -2.715951      1.722899
  H      -0.907303     -2.198464      0.112062
  H      -3.242705     -2.040913     -0.252271
  H      -3.312924      2.465202     -0.506960
  H      -0.256114      3.443702     -0.130225
  H       1.130003      1.586563      0.192812
  O      -6.327214     -1.452318     -1.035715
  H      -6.462801     -1.951829     -1.846824
  H      -6.789109     -1.898069     -0.318900
  O      -6.373123      1.626812     -1.237369
  H      -6.203832      2.574062     -1.225232
  H      -7.284525      1.481732     -1.510522
  O      -5.484031      0.162668      1.203379
  H      -5.977623      0.913275      1.554730
  H      -4.780404     -0.007631      1.840576
  O      -4.488960     -0.067625     -2.786895
  H      -4.683014      0.626564     -3.426378
  H      -3.630692     -0.431827     -3.031304
34
Coordinates from ORCA-job zn_P0_cplx E -2769.872467377471
  Zn     -5.054219      0.124014     -0.809034
  C       2.683177     -3.036811      0.763984
  O       1.460290     -2.341568      0.516043
  C       1.544083     -1.018358      0.423888
  O       2.590606     -0.414657      0.548701
  C       0.238738     -0.372334      0.181929
  C      -0.929265     -1.121111      0.052157
  C      -2.116746     -0.458304     -0.167973
  O      -3.320179     -1.079885     -0.311340
  C      -2.156955      0.926730     -0.259319
  O      -3.373132      1.493559     -0.471871
  C      -0.989137      1.669533     -0.135402
  O      -1.119335      3.010815     -0.244182
  C       0.208080      1.015507      0.087692
  H       3.396179     -2.853185     -0.040574
  H       2.419600     -4.090410      0.803651
  H       3.117264     -2.717411      1.712105
  H      -0.910237     -2.200868      0.123140
  H      -3.252710     -2.040534     -0.244585
  H      -3.325787      2.459397     -0.502293
  H      -0.261663      3.439987     -0.136076
  H       1.126633      1.581427      0.189169
  O      -6.326834     -1.452982     -1.037550
  H      -6.450831     -1.957196     -1.847512
  H      -6.770980     -1.914305     -0.319464
  O      -6.360749      1.626538     -1.239002
  H      -6.181917      2.571994     -1.226323
  H      -7.270779      1.492100     -1.521541
  O      -5.500964      0.156749      1.197772
  H      -5.975201      0.929867      1.527869
  H      -4.774579      0.012624      1.816751
  O      -4.492692     -0.078873     -2.779035
  H      -4.666779      0.637736     -3.399910
  H      -3.614987     -0.416121     -2.994106
34
Coordinates from ORCA-job zn_P0_cplx E -2769.873079017879
  Zn     -5.064602      0.117103     -0.806750
  C       2.684058     -3.035533      0.756006
  O       1.458376     -2.341199      0.518020
  C       1.541110     -1.017779      0.426006
  O       2.589099     -0.413601      0.534870
  C       0.234897     -0.373140      0.184002
  C      -0.933693     -1.123395      0.060074
  C      -2.120160     -0.459867     -0.158294
  O      -3.326856     -1.077075     -0.296618
  C      -2.160474      0.924779     -0.253487
  O      -3.380003      1.485004     -0.462971
  C      -0.993535      1.668924     -0.137336
  O      -1.122724      3.010221     -0.251142
  C       0.204375      1.014280      0.084329
  H       3.392473     -2.848633     -0.051745
  H       2.422123     -4.089705      0.793139
  H       3.123330     -2.720142      1.703074
  H      -0.913391     -2.202782      0.134722
  H      -3.264330     -2.038468     -0.236088
  H      -3.344613      2.451096     -0.495168
  H      -0.263413      3.436819     -0.145152
  H       1.123949      1.579403      0.180739
  O      -6.336392     -1.460874     -1.042431
  H      -6.440047     -1.971429     -1.851341
  H      -6.747938     -1.948086     -0.321920
  O      -6.350728      1.633938     -1.240393
  H      -6.154372      2.575942     -1.225231
  H      -7.258529      1.516849     -1.537439
  O      -5.528217      0.142666      1.197514
  H      -5.971558      0.946700      1.495954
  H      -4.768035      0.037015      1.783321
  O      -4.500718     -0.097548     -2.775660
  H      -4.644853      0.653386     -3.363198
  H      -3.596611     -0.391208     -2.941645
34
Coordinates from ORCA-job zn_P0_cplx E -2769.873477152486
  Zn     -5.080121      0.109259     -0.803595
  C       2.684697     -3.034448      0.742969
  O       1.454971     -2.341292      0.517895
  C       1.537080     -1.017773      0.425211
  O       2.586308     -0.412765      0.513341
  C       0.228863     -0.374288      0.185696
  C      -0.940174     -1.126389      0.072413
  C      -2.126334     -0.462091     -0.142558
  O      -3.337635     -1.073934     -0.271214
  C      -2.166996      0.921662     -0.244716
  O      -3.389309      1.475565     -0.450708
  C      -1.000439      1.667081     -0.139791
  O      -1.129676      3.009250     -0.260129
  C       0.199105      1.012416      0.078733
  H       3.384468     -2.846986     -0.071900
  H       2.424279     -4.089202      0.780150
  H       3.130874     -2.722728      1.687856
  H      -0.923734     -2.205391      0.151898
  H      -3.280547     -2.036263     -0.220658
  H      -3.367479      2.441679     -0.488234
  H      -0.267256      3.430786     -0.157558
  H       1.117531      1.580745      0.166294
  O      -6.353063     -1.470024     -1.049461
  H      -6.409886     -1.994834     -1.854064
  H      -6.691572     -2.006176     -0.325390
  O      -6.335432      1.649405     -1.244079
  H      -6.111828      2.585401     -1.227823
  H      -7.236825      1.557752     -1.568223
  O      -5.566357      0.130322      1.200029
  H      -5.979365      0.966203      1.453115
  H      -4.768721      0.065124      1.741654
  O      -4.507493     -0.122862     -2.771956
  H      -4.615700      0.673769     -3.305996
  H      -3.574236     -0.355310     -2.861438
34
Coordinates from ORCA-job zn_P0_cplx E -2769.873699297056
  Zn     -5.082797      0.110861     -0.802761
  C       2.683960     -3.035792      0.736942
  O       1.453468     -2.341964      0.515248
  C       1.536191     -1.018368      0.423889
  O       2.585501     -0.413244      0.509217
  C       0.227207     -0.374047      0.187198
  C      -0.941762     -1.125896      0.077269
  C      -2.128789     -0.461614     -0.136423
  O      -3.340580     -1.073758     -0.261952
  C      -2.169505      0.921698     -0.240981
  O      -3.390448      1.477664     -0.447525
  C      -1.002054      1.666636     -0.137986
  O      -1.132188      3.009589     -0.259630
  C       0.198205      1.012522      0.079233
  H       3.379891     -2.850416     -0.081554
  H       2.422852     -4.090410      0.775776
  H       3.132043     -2.724444      1.680909
  H      -0.930703     -2.204898      0.157067
  H      -3.282434     -2.036267     -0.214562
  H      -3.366566      2.443591     -0.489298
  H      -0.268709      3.429519     -0.158622
  H       1.114448      1.584636      0.163818
  O      -6.358220     -1.468245     -1.050603
  H      -6.386667     -2.002582     -1.850789
  H      -6.659018     -2.023973     -0.324208
  O      -6.332556      1.657078     -1.245849
  H      -6.102780      2.591649     -1.232414
  H      -7.228985      1.569212     -1.584601
  O      -5.572332      0.136320      1.203435
  H      -5.996925      0.966651      1.455054
  H      -4.778781      0.064382      1.749898
  O      -4.503503     -0.123317     -2.772333
  H      -4.618521      0.672183     -3.307250
  H      -3.570949     -0.361293     -2.857849
34
Coordinates from ORCA-job zn_P0_cplx E -2769.874236852349
  Zn     -5.101406      0.110764     -0.796845
  C       2.665482     -3.047091      0.734385
  O       1.440606     -2.346693      0.501957
  C       1.531249     -1.025357      0.382818
  O       2.580328     -0.421256      0.482026
  C       0.219312     -0.375598      0.171043
  C      -0.949398     -1.124439      0.079790
  C      -2.144165     -0.461079     -0.118979
  O      -3.353251     -1.077904     -0.224703
  C      -2.187463      0.922908     -0.228151
  O      -3.404219      1.484899     -0.427274
  C      -1.012410      1.664821     -0.136579
  O      -1.140404      3.010719     -0.257235
  C       0.190604      1.010749      0.065239
  H       3.352970     -2.889412     -0.096827
  H       2.394467     -4.097679      0.801957
  H       3.117203     -2.714691      1.669190
  H      -0.955751     -2.202920      0.157663
  H      -3.284061     -2.041252     -0.199401
  H      -3.368663      2.449982     -0.487872
  H      -0.274099      3.427718     -0.168745
  H       1.099697      1.594836      0.135284
  O      -6.386893     -1.473401     -1.057732
  H      -6.240585     -2.034399     -1.828636
  H      -6.462086     -2.109231     -0.335934
  O      -6.341285      1.682117     -1.237434
  H      -6.087088      2.610636     -1.236007
  H      -7.205215      1.605055     -1.655246
  O      -5.593282      0.149302      1.228314
  H      -6.039411      0.967762      1.479166
  H      -4.810698      0.088541      1.789742
  O      -4.489997     -0.112075     -2.778524
  H      -4.620230      0.691745     -3.298935
  H      -3.551862     -0.334416     -2.849752
34
Coordinates from ORCA-job zn_P0_cplx E -2769.874577235820
  Zn     -5.094385      0.109881     -0.797247
  C       2.669511     -3.043361      0.732477
  O       1.442391     -2.345779      0.503477
  C       1.529691     -1.023778      0.393765
  O       2.578884     -0.419313      0.487696
  C       0.218578     -0.376150      0.174639
  C      -0.950348     -1.125462      0.079254
  C      -2.143911     -0.462965     -0.122037
  O      -3.352541     -1.082142     -0.229725
  C      -2.187038      0.920603     -0.229682
  O      -3.404437      1.484475     -0.427693
  C      -1.013784      1.662842     -0.137529
  O      -1.144093      3.007163     -0.259577
  C       0.189055      1.010251      0.066962
  H       3.358218     -2.878914     -0.096480
  H       2.401786     -4.095146      0.794459
  H       3.121929     -2.714526      1.668265
  H      -0.951867     -2.204324      0.158462
  H      -3.280912     -2.044935     -0.203096
  H      -3.364346      2.449286     -0.487818
  H      -0.279310      3.427193     -0.171430
  H       1.100065      1.591630      0.139716
  O      -6.377221     -1.469949     -1.055400
  H      -6.264782     -2.028154     -1.834976
  H      -6.519164     -2.078094     -0.318794
  O      -6.338177      1.673170     -1.231901
  H      -6.086416      2.602312     -1.234899
  H      -7.193397      1.592075     -1.666261
  O      -5.582075      0.150244      1.222981
  H      -6.035929      0.962187      1.481389
  H      -4.805727      0.082123      1.792564
  O      -4.484981     -0.106412     -2.774708
  H      -4.617104      0.691882     -3.300942
  H      -3.550165     -0.334250     -2.858150
34
Coordinates from ORCA-job zn_P0_cplx E -2769.875091277790
  Zn     -5.096054      0.104137     -0.791606
  C       2.667372     -3.039682      0.711607
  O       1.434182     -2.346257      0.499428
  C       1.516449     -1.023580      0.402577
  O       2.566761     -0.418550      0.473201
  C       0.204738     -0.378972      0.180630
  C      -0.965453     -1.128596      0.093347
  C      -2.158951     -0.468028     -0.105801
  O      -3.368261     -1.092136     -0.202329
  C      -2.202178      0.913742     -0.219119
  O      -3.420308      1.482611     -0.410136
  C      -1.030153      1.655836     -0.139234
  O      -1.165688      2.997798     -0.270778
  C       0.174382      1.006923      0.063135
  H       3.346984     -2.870104     -0.123754
  H       2.404244     -4.092832      0.772385
  H       3.131001     -2.713928      1.642885
  H      -0.965257     -2.207659      0.179483
  H      -3.288158     -2.054050     -0.186933
  H      -3.369164      2.445777     -0.483837
  H      -0.301514      3.420983     -0.192897
  H       1.086546      1.588221      0.128358
  O      -6.376595     -1.466546     -1.055233
  H      -6.198295     -2.027568     -1.821636
  H      -6.483007     -2.065109     -0.303707
  O      -6.325795      1.670623     -1.216230
  H      -6.042919      2.590602     -1.240694
  H      -7.117320      1.601197     -1.759608
  O      -5.588157      0.154597      1.223360
  H      -6.060662      0.958057      1.475525
  H      -4.815302      0.090604      1.798858
  O      -4.470313     -0.100455     -2.762250
  H      -4.604230      0.707307     -3.271411
  H      -3.530928     -0.311303     -2.829825
34
Coordinates from ORCA-job zn_P0_cplx E -2769.875620717072
  Zn     -5.105074      0.090814     -0.781255
  C       2.657438     -3.035976      0.688367
  O       1.420781     -2.345638      0.489044
  C       1.498645     -1.023178      0.389936
  O       2.549800     -0.417372      0.440771
  C       0.185023     -0.382047      0.177030
  C      -0.986779     -1.131365      0.108139
  C      -2.183943     -0.474832     -0.080165
  O      -3.390372     -1.109221     -0.156152
  C      -2.229896      0.905894     -0.198343
  O      -3.449654      1.480343     -0.371839
  C      -1.057120      1.648174     -0.140367
  O      -1.197503      2.986987     -0.281288
  C       0.150546      1.003427      0.050207
  H       3.326543     -2.869957     -0.156347
  H       2.396521     -4.088830      0.760364
  H       3.136507     -2.701750      1.608901
  H      -0.980714     -2.210270      0.200840
  H      -3.293006     -2.069482     -0.164690
  H      -3.379883      2.440133     -0.470878
  H      -0.335389      3.417216     -0.225231
  H       1.064956      1.583045      0.100675
  O      -6.384980     -1.474702     -1.060332
  H      -6.092651     -2.028161     -1.797520
  H      -6.439311     -2.040750     -0.278172
  O      -6.330985      1.663168     -1.181646
  H      -5.964964      2.552217     -1.247881
  H      -6.945272      1.614526     -1.922334
  O      -5.598812      0.152321      1.235988
  H      -6.093291      0.941686      1.491133
  H      -4.837376      0.113519      1.828912
  O      -4.442031     -0.081540     -2.748736
  H      -4.584169      0.736302     -3.239285
  H      -3.495590     -0.261038     -2.810085
34
Coordinates from ORCA-job zn_P0_cplx E -2769.875937853217
  Zn     -5.107497      0.091549     -0.781228
  C       2.659214     -3.037888      0.690942
  O       1.424647     -2.345426      0.489396
  C       1.504638     -1.023260      0.382034
  O       2.556080     -0.417887      0.436767
  C       0.190693     -0.380803      0.174724
  C      -0.981431     -1.130083      0.108154
  C      -2.178359     -0.472026     -0.077825
  O      -3.386126     -1.102329     -0.154900
  C      -2.223816      0.909376     -0.194982
  O      -3.444834      1.479345     -0.367560
  C      -1.050532      1.652234     -0.137615
  O      -1.188266      2.991920     -0.275771
  C       0.156661      1.004861      0.050483
  H       3.329957     -2.873562     -0.152865
  H       2.396376     -4.090112      0.763865
  H       3.137554     -2.702940      1.611701
  H      -0.973160     -2.208670      0.199038
  H      -3.293948     -2.063398     -0.163106
  H      -3.382582      2.439790     -0.466731
  H      -0.325276      3.420439     -0.219630
  H       1.072453      1.581890      0.100118
  O      -6.389223     -1.479953     -1.063875
  H      -6.114792     -2.036796     -1.803301
  H      -6.461196     -2.049628     -0.287911
  O      -6.336697      1.666862     -1.188123
  H      -5.972955      2.559076     -1.244188
  H      -6.971225      1.608744     -1.913282
  O      -5.608598      0.146654      1.237963
  H      -6.090548      0.945807      1.487239
  H      -4.840145      0.121063      1.822639
  O      -4.443260     -0.088490     -2.751341
  H      -4.581093      0.730246     -3.243968
  H      -3.494716     -0.262943     -2.809102
34
Coordinates from ORCA-job zn_P0_cplx E -2769.876318575315
  Zn     -5.116274      0.089733     -0.774090
  C       2.659548     -3.037166      0.676108
  O       1.424977     -2.343493      0.482601
  C       1.505962     -1.021720      0.364434
  O       2.557952     -0.416385      0.411560
  C       0.189954     -0.378507      0.171863
  C      -0.983210     -1.128353      0.119158
  C      -2.180450     -0.468417     -0.056419
  O      -3.391983     -1.092918     -0.124091
  C      -2.225372      0.913170     -0.175544
  O      -3.449362      1.477601     -0.338493
  C      -1.051774      1.657387     -0.130842
  O      -1.188660      2.997593     -0.268925
  C       0.156143      1.007115      0.046784
  H       3.325336     -2.874425     -0.171981
  H       2.396168     -4.088964      0.752185
  H       3.144955     -2.701571      1.593059
  H      -0.969442     -2.206288      0.210534
  H      -3.304766     -2.054684     -0.141690
  H      -3.394953      2.437131     -0.451917
  H      -0.323908      3.423909     -0.222782
  H       1.075047      1.579382      0.086673
  O      -6.400515     -1.488907     -1.071453
  H      -6.108923     -2.055696     -1.794353
  H      -6.485787     -2.053764     -0.295626
  O      -6.345169      1.673419     -1.187465
  H      -5.925905      2.542773     -1.244861
  H      -6.894804      1.610377     -1.981326
  O      -5.641482      0.136241      1.245029
  H      -6.117724      0.943840      1.479263
  H      -4.865887      0.136766      1.821173
  O      -4.432033     -0.096807     -2.743978
  H      -4.570220      0.722777     -3.237481
  H      -3.479444     -0.257485     -2.789346
34
Coordinates from ORCA-job zn_P0_cplx E -2769.876548308302
  Zn     -5.116422      0.094406     -0.766826
  C       2.661148     -3.036387      0.661953
  O       1.426429     -2.341854      0.473554
  C       1.508407     -1.020300      0.351608
  O       2.560537     -0.415335      0.397567
  C       0.191147     -0.375589      0.169591
  C      -0.982332     -1.125711      0.123858
  C      -2.179479     -0.463499     -0.042567
  O      -3.394541     -1.082240     -0.102465
  C      -2.223291      0.918318     -0.160904
  O      -3.448529      1.481313     -0.316394
  C      -1.049382      1.662699     -0.122479
  O      -1.186459      3.003638     -0.257591
  C       0.158730      1.010174      0.046831
  H       3.323856     -2.873417     -0.188469
  H       2.397713     -4.088227      0.737769
  H       3.149428     -2.702531      1.578028
  H      -0.966285     -2.203485      0.214001
  H      -3.312418     -2.044480     -0.124981
  H      -3.397847      2.439609     -0.441572
  H      -0.320088      3.427497     -0.217553
  H       1.079350      1.579826      0.081832
  O      -6.400674     -1.487346     -1.073591
  H      -6.115934     -2.073024     -1.784682
  H      -6.526382     -2.046456     -0.298473
  O      -6.347475      1.677461     -1.196673
  H      -5.895457      2.530190     -1.249541
  H      -6.841432      1.599223     -2.024117
  O      -5.665186      0.137444      1.246328
  H      -6.153330      0.939021      1.476255
  H      -4.895520      0.135538      1.829968
  O      -4.417987     -0.101751     -2.731639
  H      -4.563893      0.702524     -3.246477
  H      -3.468406     -0.273586     -2.784387
34
Coordinates from ORCA-job zn_P0_cplx E -2769.876650529193
  Zn     -5.113586      0.095967     -0.759924
  C       2.659857     -3.036070      0.641928
  O       1.423937     -2.340782      0.463314
  C       1.505790     -1.019165      0.343797
  O       2.558591     -0.415186      0.383385
  C       0.187722     -0.373449      0.169820
  C      -0.986206     -1.123133      0.131797
  C      -2.183592     -0.459958     -0.027313
  O      -3.400136     -1.076748     -0.077238
  C      -2.227056      0.921680     -0.147010
  O      -3.453131      1.485595     -0.295586
  C      -1.052679      1.665193     -0.115507
  O      -1.190298      3.005953     -0.250930
  C       0.155973      1.012229      0.046729
  H       3.316522     -2.871598     -0.212839
  H       2.396740     -4.088105      0.717009
  H       3.154015     -2.704863      1.555764
  H      -0.970107     -2.200980      0.222845
  H      -3.318196     -2.038759     -0.106220
  H      -3.400731      2.441659     -0.435627
  H      -0.323102      3.428759     -0.218145
  H       1.077290      1.581325      0.076126
  O      -6.392807     -1.485870     -1.074966
  H      -6.102517     -2.086816     -1.771998
  H      -6.550105     -2.034196     -0.296768
  O      -6.342756      1.674662     -1.209876
  H      -5.866420      2.514132     -1.256458
  H      -6.781842      1.586675     -2.066335
  O      -5.686694      0.143504      1.243139
  H      -6.190132      0.937028      1.466242
  H      -4.925823      0.140692      1.837958
  O      -4.397114     -0.106877     -2.714329
  H      -4.545838      0.688358     -3.241184
  H      -3.447573     -0.277191     -2.763838
34
Coordinates from ORCA-job zn_P0_cplx E -2769.876682643436
  Zn     -5.108145      0.097428     -0.756208
  C       2.658975     -3.037573      0.630879
  O       1.422641     -2.341120      0.457420
  C       1.504964     -1.019470      0.341395
  O       2.558431     -0.416611      0.377798
  C       0.186887     -0.372592      0.170624
  C      -0.987310     -1.121267      0.135902
  C      -2.185126     -0.457601     -0.019252
  O      -3.401648     -1.074555     -0.063876
  C      -2.228562      0.923922     -0.139629
  O      -3.454579      1.489924     -0.283957
  C      -1.053255      1.665866     -0.111387
  O      -1.190561      3.006608     -0.247212
  C       0.155729      1.012977      0.047137
  H       3.311864     -2.872720     -0.226633
  H       2.395302     -4.089556      0.705465
  H       3.155916     -2.708148      1.543760
  H      -0.974557     -2.199308      0.227285
  H      -3.318882     -2.036296     -0.097836
  H      -3.399181      2.444159     -0.434812
  H      -0.322812      3.428575     -0.218769
  H       1.076155      1.583844      0.073739
  O      -6.381580     -1.483707     -1.076472
  H      -6.088930     -2.094781     -1.764620
  H      -6.558151     -2.026431     -0.297366
  O      -6.336421      1.670868     -1.224175
  H      -5.868854      2.515168     -1.256688
  H      -6.774932      1.576619     -2.079554
  O      -5.697487      0.150448      1.238407
  H      -6.211815      0.937480      1.457984
  H      -4.945023      0.144569      1.843492
  O      -4.382487     -0.109389     -2.702621
  H      -4.534943      0.677519     -3.240037
  H      -3.433627     -0.281187     -2.752424
34
Coordinates from ORCA-job zn_P0_cplx E -2769.876738792181
  Zn     -5.104930      0.095741     -0.752690
  C       2.657186     -3.038524      0.622163
  O       1.420522     -2.341303      0.453030
  C       1.502896     -1.019796      0.337262
  O       2.557008     -0.417655      0.368109
  C       0.184723     -0.372466      0.169955
  C      -0.989995     -1.119977      0.140908
  C      -2.188761     -0.456468     -0.009599
  O      -3.404468     -1.075477     -0.048258
  C      -2.232816      0.924887     -0.131222
  O      -3.459152      1.492805     -0.268750
  C      -1.056453      1.665455     -0.109567
  O      -1.193285      3.005884     -0.247236
  C       0.153181      1.012910      0.044309
  H       3.306150     -2.875044     -0.238565
  H       2.392892     -4.090167      0.699145
  H       3.158024     -2.708119      1.532526
  H      -0.979933     -2.198057      0.233306
  H      -3.318962     -2.036644     -0.091598
  H      -3.399532      2.444439     -0.434225
  H      -0.325406      3.427910     -0.226250
  H       1.072803      1.585319      0.066174
  O      -6.372983     -1.485586     -1.080528
  H      -6.066477     -2.103185     -1.756756
  H      -6.563821     -2.017231     -0.297077
  O      -6.334063      1.666614     -1.231201
  H      -5.864900      2.510352     -1.250596
  H      -6.745541      1.574177     -2.100034
  O      -5.708734      0.152642      1.235867
  H      -6.230812      0.935394      1.452281
  H      -4.963564      0.152584      1.849974
  O      -4.368530     -0.108272     -2.693647
  H      -4.525761      0.674215     -3.236256
  H      -3.418512     -0.273695     -2.743191
34
Coordinates from ORCA-job zn_P0_cplx E -2769.876769413617
  Zn     -5.100672      0.092003     -0.748506
  C       2.656061     -3.040335      0.611017
  O       1.418689     -2.342215      0.448450
  C       1.501311     -1.021028      0.331162
  O       2.556150     -0.419572      0.351675
  C       0.182828     -0.373110      0.169383
  C      -0.992848     -1.118791      0.150228
  C      -2.192770     -0.455210      0.006239
  O      -3.407960     -1.076755     -0.023591
  C      -2.237626      0.925707     -0.117999
  O      -3.464439      1.495933     -0.245260
  C      -1.059860      1.664332     -0.107325
  O      -1.195792      3.004543     -0.248284
  C       0.150755      1.011891      0.039645
  H       3.298654     -2.880005     -0.255021
  H       2.390876     -4.091378      0.692855
  H       3.163154     -2.707693      1.517035
  H      -0.988028     -2.196813      0.244522
  H      -3.320005     -2.036900     -0.083464
  H      -3.400631      2.442744     -0.435962
  H      -0.327345      3.425727     -0.239383
  H       1.068758      1.587098      0.053434
  O      -6.360742     -1.490831     -1.089208
  H      -6.029193     -2.118150     -1.743920
  H      -6.565670     -2.008282     -0.300109
  O      -6.330079      1.662616     -1.242836
  H      -5.868492      2.510695     -1.235006
  H      -6.711851      1.580593     -2.126082
  O      -5.729023      0.153694      1.231245
  H      -6.258620      0.934218      1.438570
  H      -4.991580      0.165894      1.854996
  O      -4.351534     -0.108916     -2.683607
  H      -4.516036      0.670378     -3.229086
  H      -3.398445     -0.258420     -2.728044
34
Coordinates from ORCA-job zn_P0_cplx E -2769.876840745430
  Zn     -5.096511      0.088570     -0.745243
  C       2.657044     -3.041979      0.599876
  O       1.419035     -2.343148      0.444327
  C       1.501874     -1.022225      0.324746
  O       2.557018     -0.421024      0.337356
  C       0.182810     -0.373695      0.170445
  C      -0.993679     -1.118124      0.160378
  C      -2.194159     -0.454061      0.021927
  O      -3.409836     -1.076417     -0.000237
  C      -2.239309      0.926464     -0.104506
  O      -3.466463      1.498062     -0.224729
  C      -1.060870      1.664104     -0.102478
  O      -1.196498      3.004199     -0.245451
  C       0.150348      1.011114      0.038372
  H       3.293789     -2.883938     -0.270883
  H       2.391380     -4.092561      0.685728
  H       3.170519     -2.707729      1.501688
  H      -0.991733     -2.196044      0.255793
  H      -3.321809     -2.035631     -0.074700
  H      -3.401151      2.439822     -0.439330
  H      -0.327587      3.424501     -0.247049
  H       1.067695      1.587416      0.045213
  O      -6.350270     -1.496892     -1.096637
  H      -6.002210     -2.134791     -1.731792
  H      -6.575325     -1.999968     -0.304143
  O      -6.327074      1.659861     -1.255636
  H      -5.877947      2.514103     -1.222053
  H      -6.687035      1.589367     -2.149034
  O      -5.749255      0.155892      1.226250
  H      -6.282841      0.936630      1.423024
  H      -5.018517      0.178920      1.857771
  O      -4.338936     -0.112362     -2.676819
  H      -4.511088      0.662983     -3.225992
  H      -3.383414     -0.247754     -2.718420
34
Coordinates from ORCA-job zn_P0_cplx E -2769.876880743237
  Zn     -5.092949      0.086150     -0.742538
  C       2.659138     -3.042982      0.591110
  O       1.420587     -2.344004      0.441082
  C       1.503448     -1.023292      0.318800
  O       2.558543     -0.422020      0.326504
  C       0.183650     -0.374348      0.171552
  C      -0.993286     -1.118459      0.168319
  C      -2.193748     -0.453584      0.034567
  O      -3.410935     -1.074723      0.019434
  C      -2.238552      0.926659     -0.093206
  O      -3.465943      1.498970     -0.209001
  C      -1.060163      1.664318     -0.097221
  O      -1.196436      3.004283     -0.241056
  C       0.151263      1.010410      0.038550
  H       3.291686     -2.886352     -0.282979
  H       2.393640     -4.093357      0.679847
  H       3.177675     -2.707623      1.489635
  H      -0.991069     -2.196250      0.264515
  H      -3.324983     -2.033234     -0.066619
  H      -3.401671      2.436211     -0.443222
  H      -0.327171      3.423804     -0.251150
  H       1.069197      1.585780      0.040354
  O      -6.342363     -1.501734     -1.101942
  H      -5.984642     -2.148977     -1.721858
  H      -6.583449     -1.995366     -0.308343
  O      -6.324441      1.658601     -1.266432
  H      -5.888734      2.518901     -1.211749
  H      -6.669674      1.599594     -2.166577
  O      -5.767281      0.159463      1.221366
  H      -6.302915      0.941367      1.407619
  H      -5.042230      0.187777      1.859135
  O      -4.331773     -0.116280     -2.672513
  H      -4.511749      0.655161     -3.224892
  H      -3.374672     -0.241201     -2.713328
34
Coordinates from ORCA-job zn_P0_cplx E -2769.876902275029
  Zn     -5.088494      0.084173     -0.739294
  C       2.660531     -3.043611      0.582809
  O       1.421594     -2.344649      0.437781
  C       1.504357     -1.024221      0.311798
  O       2.559500     -0.423150      0.314720
  C       0.183809     -0.374891      0.171674
  C      -0.993333     -1.119063      0.175507
  C      -2.193642     -0.453298      0.047055
  O      -3.412491     -1.072360      0.039757
  C      -2.237804      0.926765     -0.081926
  O      -3.465518      1.499816     -0.192921
  C      -1.059544      1.664747     -0.092332
  O      -1.196785      3.004373     -0.237102
  C       0.151892      1.009805      0.037707
  H       3.289105     -2.888657     -0.294482
  H       2.395454     -4.093795      0.674874
  H       3.184146     -2.706700      1.477852
  H      -0.988332     -2.196665      0.272847
  H      -3.328967     -2.030034     -0.058239
  H      -3.402547      2.431944     -0.447056
  H      -0.327315      3.423223     -0.256598
  H       1.071472      1.582553      0.034352
  O      -6.332832     -1.505998     -1.106874
  H      -5.967010     -2.162604     -1.712238
  H      -6.591818     -1.990620     -0.313155
  O      -6.321338      1.656325     -1.276184
  H      -5.899529      2.521891     -1.198950
  H      -6.648760      1.609113     -2.183716
  O      -5.785494      0.164790      1.215444
  H      -6.324100      0.946725      1.391734
  H      -5.068698      0.193233      1.862173
  O      -4.322892     -0.118287     -2.666789
  H      -4.511808      0.647750     -3.223618
  H      -3.364816     -0.234959     -2.708847
34
Coordinates from ORCA-job zn_P0_cplx E -2769.876916340980
  Zn     -5.086765      0.083271     -0.738582
  C       2.661236     -3.043267      0.583159
  O       1.422237     -2.344732      0.438507
  C       1.504719     -1.024509      0.309590
  O       2.559904     -0.423582      0.310529
  C       0.183871     -0.375392      0.170738
  C      -0.993141     -1.120078      0.176891
  C      -2.193235     -0.454032      0.049877
  O      -3.412991     -1.071519      0.045259
  C      -2.236849      0.926007     -0.079774
  O      -3.464884      1.498901     -0.189084
  C      -1.058936      1.664513     -0.092549
  O      -1.196947      3.003792     -0.237992
  C       0.152374      1.009263      0.035879
  H       3.289113     -2.889450     -0.294863
  H       2.396618     -4.093391      0.677129
  H       3.186163     -2.704937      1.476940
  H      -0.984713     -2.197508      0.275271
  H      -3.331432     -2.028987     -0.056769
  H      -3.403732      2.429214     -0.450260
  H      -0.327557      3.422656     -0.261238
  H       1.073473      1.579569      0.030997
  O      -6.329424     -1.507606     -1.108847
  H      -5.963247     -2.165679     -1.712555
  H      -6.593653     -1.990837     -0.315889
  O      -6.321064      1.654995     -1.276034
  H      -5.906501      2.522811     -1.186612
  H      -6.641718      1.615835     -2.186286
  O      -5.790808      0.167114      1.212771
  H      -6.328247      0.950250      1.386534
  H      -5.077786      0.190601      1.863646
  O      -4.321063     -0.116638     -2.665830
  H      -4.514154      0.648047     -3.222950
  H      -3.362864     -0.231033     -2.709839
34
Coordinates from ORCA-job zn_P0_cplx E -2769.876923244494
  Zn     -5.085006      0.082010     -0.737845
  C       2.660766     -3.043001      0.582813
  O       1.421678     -2.344672      0.439497
  C       1.503901     -1.024724      0.307148
  O       2.559324     -0.424256      0.304371
  C       0.182795     -0.375723      0.169755
  C      -0.994087     -1.120750      0.179455
  C      -2.194053     -0.454502      0.053873
  O      -3.414475     -1.070415      0.052570
  C      -2.237144      0.925423     -0.077617
  O      -3.465635      1.497943     -0.185030
  C      -1.059397      1.664177     -0.093884
  O      -1.197865      3.003043     -0.240953
  C       0.151848      1.008788      0.032924
  H       3.286907     -2.890888     -0.296764
  H       2.396456     -4.092972      0.679390
  H       3.187810     -2.703043      1.474754
  H      -0.982280     -2.197945      0.279575
  H      -3.334503     -2.027559     -0.053809
  H      -3.406012      2.425737     -0.455256
  H      -0.328516      3.421722     -0.268739
  H       1.074446      1.576652      0.025674
  O      -6.325172     -1.509895     -1.111638
  H      -5.955801     -2.167745     -1.713908
  H      -6.590201     -1.993445     -0.318910
  O      -6.320622      1.652548     -1.275180
  H      -5.912632      2.521490     -1.168964
  H      -6.628726      1.623299     -2.189996
  O      -5.797407      0.170314      1.209460
  H      -6.332511      0.955379      1.381066
  H      -5.089814      0.185979      1.866330
  O      -4.315780     -0.113787     -2.663618
  H      -4.512896      0.649879     -3.220514
  H      -3.357398     -0.225399     -2.708268
34
Coordinates from ORCA-job zn_P0_cplx E -2769.876931965571
  Zn     -5.085115      0.081276     -0.738849
  C       2.660222     -3.042691      0.585815
  O       1.421168     -2.344496      0.442008
  C       1.503258     -1.024661      0.308255
  O       2.558820     -0.424408      0.304458
  C       0.182196     -0.375896      0.169486
  C      -0.994561     -1.121187      0.179441
  C      -2.194428     -0.455097      0.052674
  O      -3.414972     -1.070336      0.051279
  C      -2.237264      0.924743     -0.080355
  O      -3.466033      1.496454     -0.188850
  C      -1.059719      1.663619     -0.096890
  O      -1.198272      3.002251     -0.245290
  C       0.151495      1.008533      0.031213
  H       3.286338     -2.891196     -0.293885
  H       2.395969     -4.092618      0.683093
  H       3.187193     -2.702178      1.477585
  H      -0.981163     -2.198239      0.280742
  H      -3.336087     -2.027615     -0.054790
  H      -3.407820      2.423641     -0.461527
  H      -0.329009      3.421062     -0.273465
  H       1.074653      1.575476      0.024004
  O      -6.325028     -1.511228     -1.112109
  H      -5.956216     -2.164629     -1.719609
  H      -6.583259     -1.998579     -0.319435
  O      -6.321999      1.650801     -1.270580
  H      -5.917272      2.519923     -1.154489
  H      -6.626460      1.628339     -2.186663
  O      -5.796675      0.171965      1.208548
  H      -6.326075      0.960394      1.382288
  H      -5.091344      0.178660      1.867983
  O      -4.314994     -0.110631     -2.664800
  H      -4.512840      0.654427     -3.219448
  H      -3.356711     -0.222216     -2.710076
34
Coordinates from ORCA-job zn_P0_cplx E -2769.876933696515
  Zn     -5.084676      0.080243     -0.739004
  C       2.658930     -3.043105      0.584023
  O       1.419765     -2.344428      0.442555
  C       1.502035     -1.024643      0.308772
  O       2.557798     -0.424725      0.302832
  C       0.181037     -0.375624      0.170644
  C      -0.995870     -1.120536      0.182531
  C      -2.195712     -0.454443      0.055352
  O      -3.416207     -1.069482      0.055197
  C      -2.238526      0.925162     -0.080145
  O      -3.467532      1.496298     -0.189611
  C      -1.060798      1.663587     -0.098169
  O      -1.198753      3.002117     -0.248671
  C       0.150501      1.008625      0.030434
  H       3.283260     -2.891779     -0.296950
  H       2.394366     -4.092948      0.681517
  H       3.187346     -2.703075      1.475091
  H      -0.983322     -2.197489      0.285126
  H      -3.337668     -2.026595     -0.052596
  H      -3.409581      2.421198     -0.469979
  H      -0.329298      3.420391     -0.278471
  H       1.073402      1.575960      0.021821
  O      -6.322749     -1.513923     -1.112891
  H      -5.950948     -2.164217     -1.721892
  H      -6.575308     -2.003596     -0.319814
  O      -6.322217      1.648102     -1.270125
  H      -5.921532      2.517128     -1.140325
  H      -6.616634      1.632980     -2.189547
  O      -5.800475      0.174540      1.206760
  H      -6.324134      0.966784      1.380830
  H      -5.098901      0.173418      1.870312
  O      -4.309902     -0.109614     -2.663530
  H      -4.508430      0.656013     -3.217178
  H      -3.351272     -0.218659     -2.707135
34
Coordinates from ORCA-job zn_P0_cplx E -2769.876944879023
  Zn     -5.085276      0.080086     -0.739789
  C       2.658576     -3.043435      0.583906
  O       1.419351     -2.344446      0.443023
  C       1.501839     -1.024530      0.311197
  O       2.557547     -0.424482      0.306402
  C       0.181012     -0.375336      0.172310
  C      -0.996080     -1.119881      0.183452
  C      -2.195819     -0.453806      0.054638
  O      -3.416194     -1.069160      0.053481
  C      -2.238739      0.925673     -0.082109
  O      -3.467680      1.496391     -0.194337
  C      -1.060903      1.663736     -0.098881
  O      -1.198132      3.002367     -0.250295
  C       0.150384      1.008826      0.031520
  H       3.283060     -2.890803     -0.296707
  H       2.393765     -4.093396      0.679542
  H       3.186402     -2.704941      1.475877
  H      -0.985778     -2.196852      0.286376
  H      -3.337975     -2.026372     -0.053748
  H      -3.409835      2.420215     -0.478411
  H      -0.328437      3.420218     -0.278918
  H       1.072413      1.577568      0.023481
  O      -6.323188     -1.515413     -1.111310
  H      -5.952704     -2.162472     -1.724387
  H      -6.570045     -2.007862     -0.318322
  O      -6.323388      1.646910     -1.269033
  H      -5.924991      2.516019     -1.132746
  H      -6.615107      1.635908     -2.189376
  O      -5.799982      0.175396      1.206873
  H      -6.317206      0.971487      1.383068
  H      -5.098937      0.168167      1.871049
  O      -4.310301     -0.110103     -2.664771
  H      -4.508126      0.656479     -3.217477
  H      -3.351528     -0.218495     -2.707820
34
Coordinates from ORCA-job zn_P0_cplx E -2769.876957106506
  Zn     -5.084945      0.080056     -0.739433
  C       2.658230     -3.044046      0.580797
  O       1.418941     -2.344575      0.441666
  C       1.501718     -1.024497      0.312238
  O       2.557368     -0.424357      0.308438
  C       0.180954     -0.374894      0.174293
  C      -0.996413     -1.118902      0.185932
  C      -2.196027     -0.452592      0.056712
  O      -3.416426     -1.068164      0.056019
  C      -2.239014      0.926755     -0.081170
  O      -3.467814      1.497625     -0.195071
  C      -1.060909      1.664391     -0.097662
  O      -1.197284      3.003113     -0.249881
  C       0.150295      1.009158      0.033174
  H       3.282334     -2.889756     -0.299785
  H       2.393198     -4.094137      0.674373
  H       3.186266     -2.707421      1.473330
  H      -0.988494     -2.195886      0.289102
  H      -3.338361     -2.025167     -0.053212
  H      -3.409416      2.418933     -0.487168
  H      -0.327228      3.420193     -0.278954
  H       1.071578      1.579111      0.024743
  O      -6.321372     -1.517286     -1.109946
  H      -5.950769     -2.164263     -1.722943
  H      -6.567891     -2.010015     -0.317115
  O      -6.323490      1.645610     -1.271426
  H      -5.929153      2.515210     -1.126339
  H      -6.607629      1.639480     -2.194234
  O      -5.803320      0.176585      1.206117
  H      -6.316082      0.975646      1.382197
  H      -5.103707      0.165157      1.871794
  O      -4.309170     -0.112289     -2.664165
  H      -4.507916      0.653267     -3.218071
  H      -3.350057     -0.218381     -2.706588
34
Coordinates from ORCA-job zn_P0_cplx E -2769.876984087414
  Zn     -5.085187      0.080697     -0.739386
  C       2.658273     -3.044264      0.579851
  O       1.419047     -2.344643      0.440677
  C       1.501937     -1.024349      0.313835
  O       2.557444     -0.423979      0.312726
  C       0.181248     -0.374580      0.175664
  C      -0.996235     -1.118394      0.186269
  C      -2.195692     -0.451919      0.056082
  O      -3.416097     -1.067668      0.054723
  C      -2.238641      0.927431     -0.081910
  O      -3.467167      1.498643     -0.197711
  C      -1.060418      1.664984     -0.096688
  O      -1.196234      3.003796     -0.248644
  C       0.150584      1.009456      0.035099
  H       3.283454     -2.887925     -0.299606
  H       2.393260     -4.094576      0.670840
  H       3.185228     -2.709409      1.473687
  H      -0.989560     -2.195411      0.289233
  H      -3.338179     -2.024625     -0.055020
  H      -3.408297      2.418520     -0.494266
  H      -0.325956      3.420498     -0.276797
  H       1.071509      1.580017      0.027589
  O      -6.321222     -1.517785     -1.107570
  H      -5.952739     -2.164709     -1.721861
  H      -6.567134     -2.011304     -0.315085
  O      -6.324003      1.645522     -1.272395
  H      -5.931626      2.515480     -1.123746
  H      -6.604956      1.641960     -2.196254
  O      -5.803360      0.176610      1.206519
  H      -6.312792      0.977607      1.383555
  H      -5.103148      0.162002      1.871518
  O      -4.311662     -0.114368     -2.664997
  H      -4.511232      0.650049     -3.220216
  H      -3.352451     -0.219702     -2.707952
34
Coordinates from ORCA-job zn_P0_cplx E -2769.877009446132
  Zn     -5.084986      0.081495     -0.739025
  C       2.658019     -3.044633      0.577466
  O       1.418941     -2.344764      0.438600
  C       1.501852     -1.024089      0.315918
  O       2.557205     -0.423497      0.318741
  C       0.181231     -0.374091      0.177763
  C      -0.996366     -1.117697      0.187550
  C      -2.195626     -0.450984      0.056308
  O      -3.416018     -1.066827      0.054756
  C      -2.238360      0.928331     -0.082204
  O      -3.466501      1.500295     -0.200152
  C      -1.059953      1.665839     -0.095129
  O      -1.195080      3.004641     -0.247006
  C       0.150725      1.009926      0.037723
  H       3.284780     -2.884940     -0.300284
  H       2.393119     -4.095307      0.664328
  H       3.183549     -2.712657      1.473226
  H      -0.990306     -2.194711      0.290543
  H      -3.338162     -2.023566     -0.056948
  H      -3.406618      2.417088     -0.505996
  H      -0.324563      3.420870     -0.274995
  H       1.071650      1.580526      0.031108
  O      -6.319601     -1.518917     -1.104549
  H      -5.952594     -2.166370     -1.719188
  H      -6.565768     -2.012528     -0.312186
  O      -6.324321      1.644952     -1.274439
  H      -5.936524      2.515514     -1.117206
  H      -6.597367      1.646819     -2.200703
  O      -5.804747      0.177443      1.206421
  H      -6.310009      0.980906      1.384197
  H      -5.104798      0.157887      1.871534
  O      -4.313925     -0.117313     -2.665467
  H      -4.516411      0.644200     -3.223601
  H      -3.354469     -0.220177     -2.709344
34
Coordinates from ORCA-job zn_P0_cplx E -2769.876952850666
  Zn     -5.084886      0.082218     -0.738926
  C       2.657546     -3.044879      0.575313
  O       1.418623     -2.344857      0.436616
  C       1.501419     -1.023771      0.318316
  O       2.556645     -0.423011      0.325080
  C       0.180886     -0.373647      0.179822
  C      -0.996735     -1.117179      0.188742
  C      -2.195840     -0.450351      0.056314
  O      -3.416159     -1.066271      0.054389
  C      -2.238254      0.928908     -0.082805
  O      -3.466057      1.501634     -0.202805
  C      -1.059748      1.666473     -0.093932
  O      -1.194448      3.005203     -0.245803
  C       0.150651      1.010384      0.040104
  H       3.286048     -2.881706     -0.300570
  H       2.392860     -4.095940      0.657870
  H       3.181455     -2.715892      1.473140
  H      -0.990324     -2.194169      0.291884
  H      -3.338191     -2.022834     -0.058813
  H      -3.405115      2.415381     -0.517575
  H      -0.323819      3.421205     -0.273809
  H       1.071902      1.580478      0.034481
  O      -6.318113     -1.520005     -1.101881
  H      -5.951369     -2.167702     -1.716470
  H      -6.563548     -2.013438     -0.309149
  O      -6.324529      1.644568     -1.275895
  H      -5.940902      2.515373     -1.109918
  H      -6.589532      1.651876     -2.204467
  O      -5.805326      0.178339      1.206379
  H      -6.307278      0.983681      1.384979
  H      -5.105377      0.154612      1.871331
  O      -4.316010     -0.119982     -2.666186
  H      -4.522265      0.638267     -3.227329
  H      -3.356216     -0.219302     -2.710664
34
Coordinates from ORCA-job zn_P0_cplx E -2769.876958581629
  Zn     -5.085158      0.082955     -0.739256
  C       2.657098     -3.044894      0.574739
  O       1.418294     -2.344932      0.435624
  C       1.500853     -1.023531      0.320506
  O       2.555988     -0.422662      0.330294
  C       0.180396     -0.373424      0.181226
  C      -0.997161     -1.117035      0.189031
  C      -2.196202     -0.450271      0.055296
  O      -3.416346     -1.066367      0.052339
  C      -2.238258      0.928959     -0.084033
  O      -3.465792      1.502392     -0.205724
  C      -1.059753      1.666707     -0.093269
  O      -1.194364      3.005374     -0.244804
  C       0.150478      1.010691      0.041852
  H       3.287190     -2.879255     -0.299554
  H       2.392686     -4.096254      0.654202
  H       3.179467     -2.717938      1.474221
  H      -0.989571     -2.194009      0.292189
  H      -3.337997     -2.022849     -0.061229
  H      -3.403877      2.413848     -0.526980
  H      -0.323775      3.421454     -0.272705
  H       1.072269      1.579919      0.037442
  O      -6.317440     -1.520642     -1.099917
  H      -5.949837     -2.168111     -1.714296
  H      -6.560828     -2.013763     -0.306310
  O      -6.324796      1.644940     -1.276053
  H      -5.943762      2.515547     -1.103300
  H      -6.583706      1.656416     -2.206269
  O      -5.803997      0.178574      1.206870
  H      -6.304597      0.984466      1.386718
  H      -5.103072      0.152922      1.870705
  O      -4.318588     -0.121892     -2.667609
  H      -4.529489      0.632839     -3.231708
  H      -3.358357     -0.216510     -2.712477
34
Coordinates from ORCA-job zn_P0_cplx E -2769.876953067462
  Zn     -5.085512      0.084162     -0.740169
  C       2.656277     -3.044972      0.573716
  O       1.417551     -2.345144      0.434281
  C       1.499653     -1.023208      0.324898
  O       2.554592     -0.422100      0.339667
  C       0.179337     -0.373104      0.184191
  C      -0.998115     -1.116827      0.189935
  C      -2.197051     -0.450243      0.053679
  O      -3.416866     -1.066725      0.048638
  C      -2.238403      0.928863     -0.086294
  O      -3.465451      1.503571     -0.211337
  C      -1.059970      1.666889     -0.092055
  O      -1.194534      3.005464     -0.243259
  C       0.150033      1.011182      0.045304
  H       3.288764     -2.875071     -0.298042
  H       2.392373     -4.096853      0.647790
  H       3.176096     -2.721686      1.476005
  H      -0.988560     -2.193771      0.293142
  H      -3.337823     -2.023069     -0.065580
  H      -3.401727      2.409730     -0.547140
  H      -0.324012      3.421641     -0.271588
  H       1.072676      1.579008      0.043089
  O      -6.315419     -1.522596     -1.096760
  H      -5.944707     -2.169591     -1.709821
  H      -6.555079     -2.014301     -0.301100
  O      -6.325273      1.645640     -1.276125
  H      -5.951257      2.515575     -1.085842
  H      -6.569273      1.667645     -2.210097
  O      -5.801447      0.179334      1.207544
  H      -6.300070      0.985914      1.389738
  H      -5.098900      0.150969      1.869534
  O      -4.322832     -0.125773     -2.670600
  H      -4.545634      0.620341     -3.241505
  H      -3.361440     -0.207232     -2.716073
34
Coordinates from ORCA-job zn_P0_cplx E -2769.876965149850
  Zn     -5.085978      0.085102     -0.741475
  C       2.655718     -3.044990      0.573518
  O       1.416938     -2.345354      0.433818
  C       1.498613     -1.023012      0.329169
  O       2.553306     -0.421599      0.348004
  C       0.178409     -0.372962      0.186897
  C      -0.998922     -1.116850      0.190415
  C      -2.197768     -0.450508      0.051691
  O      -3.417349     -1.067289      0.044407
  C      -2.238519      0.928471     -0.088859
  O      -3.465208      1.504017     -0.217148
  C      -1.060270      1.666765     -0.091292
  O      -1.194944      3.005319     -0.242268
  C       0.149607      1.011487      0.048452
  H       3.290039     -2.871661     -0.296231
  H       2.392256     -4.097292      0.643155
  H       3.173300     -2.724793      1.478184
  H      -0.987973     -2.193779      0.293626
  H      -3.337839     -2.023634     -0.069346
  H      -3.400406      2.405289     -0.565920
  H      -0.324459      3.421534     -0.270972
  H       1.072760      1.578449      0.048418
  O      -6.313659     -1.524759     -1.094372
  H      -5.939336     -2.171242     -1.705786
  H      -6.549423     -2.014962     -0.296615
  O      -6.325914      1.646581     -1.275324
  H      -5.958944      2.515163     -1.066281
  H      -6.553365      1.680203     -2.213106
  O      -5.798114      0.180021      1.208194
  H      -6.296340      0.986375      1.392497
  H      -5.093577      0.151180      1.868066
  O      -4.326922     -0.129564     -2.673960
  H      -4.563396      0.606921     -3.251830
  H      -3.364322     -0.194965     -2.719964
34
Coordinates from ORCA-job zn_P0_cplx E -2769.876979083582
  Zn     -5.085536      0.085330     -0.742199
  C       2.655210     -3.045189      0.572481
  O       1.416350     -2.345546      0.433540
  C       1.497838     -1.022995      0.331660
  O       2.552414     -0.421459      0.352420
  C       0.177657     -0.372855      0.189119
  C      -0.999694     -1.116693      0.192360
  C      -2.198401     -0.450364      0.052128
  O      -3.417980     -1.067088      0.044278
  C      -2.238705      0.928448     -0.089714
  O      -3.465193      1.504548     -0.220281
  C      -1.060513      1.666795     -0.090748
  O      -1.195005      3.005260     -0.242299
  C       0.149237      1.011597      0.050277
  H       3.290048     -2.869707     -0.296457
  H       2.391979     -4.097724      0.639473
  H       3.172083     -2.727000      1.478253
  H      -0.988185     -2.193563      0.296104
  H      -3.338625     -2.023281     -0.070912
  H      -3.399836      2.400365     -0.582941
  H      -0.324408      3.421130     -0.272616
  H       1.072703      1.578029      0.050854
  O      -6.310301     -1.527654     -1.093280
  H      -5.933169     -2.174020     -1.703091
  H      -6.544966     -2.016627     -0.294441
  O      -6.326451      1.645929     -1.275474
  H      -5.969909      2.513233     -1.044289
  H      -6.535186      1.693698     -2.216976
  O      -5.798687      0.181694      1.207233
  H      -6.294363      0.989510      1.392087
  H      -5.094622      0.150013      1.867491
  O      -4.327885     -0.132331     -2.675566
  H      -4.575435      0.596398     -3.258647
  H      -3.364470     -0.184218     -2.722062
34
Coordinates from ORCA-job zn_P0_cplx E -2769.876989078338
  Zn     -5.084133      0.083315     -0.743405
  C       2.655308     -3.045440      0.573987
  O       1.416036     -2.345700      0.437138
  C       1.497883     -1.023653      0.330131
  O       2.552620     -0.422244      0.345343
  C       0.177495     -0.373410      0.188911
  C      -0.999980     -1.117119      0.194842
  C      -2.198580     -0.450753      0.054839
  O      -3.418630     -1.066730      0.048072
  C      -2.239044      0.927917     -0.088948
  O      -3.466310      1.502396     -0.219280
  C      -1.060919      1.666092     -0.092457
  O      -1.195072      3.004546     -0.246044
  C       0.149020      1.010771      0.048031
  H       3.286598     -2.873726     -0.298238
  H       2.391668     -4.097581      0.645859
  H       3.175415     -2.724350      1.476831
  H      -0.989692     -2.193904      0.299719
  H      -3.340668     -2.023045     -0.067175
  H      -3.404069      2.395635     -0.588783
  H      -0.324083      3.419375     -0.279679
  H       1.071978      1.578014      0.046411
  O      -6.305659     -1.532023     -1.097340
  H      -5.925971     -2.178328     -1.705525
  H      -6.543457     -2.020164     -0.298991
  O      -6.327713      1.643106     -1.273100
  H      -5.985085      2.508113     -1.013809
  H      -6.514278      1.709478     -2.218201
  O      -5.801809      0.184212      1.203707
  H      -6.297290      0.992850      1.385846
  H      -5.100516      0.154166      1.867049
  O      -4.323045     -0.131701     -2.675587
  H      -4.581213      0.591624     -3.261013
  H      -3.358809     -0.168074     -2.721380
34
Coordinates from ORCA-job zn_P0_cplx E -2769.876987376893
  Zn     -5.083822      0.081947     -0.745563
  C       2.655653     -3.045725      0.578570
  O       1.416223     -2.345815      0.441526
  C       1.498615     -1.024324      0.329289
  O       2.553391     -0.422912      0.341000
  C       0.178161     -0.374066      0.187678
  C      -0.999333     -1.117727      0.193595
  C      -2.197875     -0.451362      0.053222
  O      -3.418136     -1.067020      0.046254
  C      -2.238855      0.927345     -0.091305
  O      -3.466740      1.499787     -0.222073
  C      -1.060774      1.665371     -0.095220
  O      -1.194207      3.004053     -0.249322
  C       0.149232      1.009867      0.046020
  H       3.284707     -2.878139     -0.296036
  H       2.391403     -4.097374      0.655402
  H       3.177573     -2.721234      1.479107
  H      -0.991942     -2.194515      0.298810
  H      -3.341098     -2.023833     -0.065333
  H      -3.408447      2.393707     -0.590602
  H      -0.322725      3.417895     -0.282860
  H       1.070867      1.579275      0.044039
  O      -6.303796     -1.534966     -1.100284
  H      -5.923595     -2.181020     -1.708341
  H      -6.541096     -2.024327     -0.302583
  O      -6.330916      1.641187     -1.269044
  H      -6.000892      2.503284     -0.984701
  H      -6.496874      1.725860     -2.216796
  O      -5.799654      0.185899      1.201945
  H      -6.298070      0.992949      1.383240
  H      -5.099002      0.159661      1.866167
  O      -4.321918     -0.131383     -2.677516
  H      -4.590747      0.585437     -3.266180
  H      -3.357314     -0.154117     -2.724341
34
Coordinates from ORCA-job zn_P0_cplx E -2769.876991405953
  Zn     -5.083250      0.081960     -0.746318
  C       2.655396     -3.046227      0.577897
  O       1.416054     -2.345914      0.441987
  C       1.498754     -1.024511      0.329304
  O       2.553645     -0.423292      0.340335
  C       0.178352     -0.374034      0.188332
  C      -0.999256     -1.117423      0.194293
  C      -2.197718     -0.450908      0.053500
  O      -3.417812     -1.066697      0.046508
  C      -2.238851      0.927779     -0.091557
  O      -3.466768      1.499852     -0.223300
  C      -1.060579      1.665647     -0.094878
  O      -1.193063      3.004394     -0.248834
  C       0.149273      1.009786      0.046741
  H       3.283457     -2.879096     -0.297521
  H       2.390854     -4.097727      0.655490
  H       3.178546     -2.721384      1.477591
  H      -0.993258     -2.194215      0.299548
  H      -3.340308     -2.023659     -0.063388
  H      -3.409010      2.392465     -0.595045
  H      -0.321264      3.417601     -0.282011
  H       1.070477      1.579928      0.044770
  O      -6.301153     -1.536661     -1.100539
  H      -5.920825     -2.184463     -1.706627
  H      -6.542036     -2.024714     -0.303132
  O      -6.332488      1.639632     -1.271133
  H      -6.015114      2.500128     -0.968235
  H      -6.481298      1.737292     -2.220547
  O      -5.799576      0.187736      1.200834
  H      -6.301023      0.993000      1.381465
  H      -5.099456      0.163796      1.865684
  O      -4.320396     -0.134273     -2.677351
  H      -4.596664      0.575272     -3.271332
  H      -3.355650     -0.147407     -2.724768
34
Coordinates from ORCA-job zn_P0_cplx E -2769.877015215608
  Zn     -5.082840      0.081161     -0.747314
  C       2.656213     -3.047011      0.576705
  O       1.417010     -2.345832      0.443805
  C       1.500555     -1.025079      0.324525
  O       2.555924     -0.424585      0.328809
  C       0.180112     -0.374354      0.186441
  C      -0.997776     -1.117244      0.193540
  C      -2.196239     -0.450316      0.054456
  O      -3.416097     -1.066263      0.048283
  C      -2.238565      0.928587     -0.090116
  O      -3.467099      1.497964     -0.220963
  C      -1.059879      1.666080     -0.094638
  O      -1.190293      3.005117     -0.247404
  C       0.149843      1.009160      0.045530
  H       3.279690     -2.885070     -0.302989
  H       2.390760     -4.097672      0.661534
  H       3.184999     -2.717532      1.471419
  H      -0.996015     -2.194140      0.298060
  H      -3.337090     -2.024093     -0.052342
  H      -3.412375      2.398559     -0.572874
  H      -0.317894      3.417402     -0.275940
  H       1.069459      1.581981      0.042130
  O      -6.300818     -1.535939     -1.103596
  H      -5.925861     -2.188579     -1.707738
  H      -6.553805     -2.022791     -0.309278
  O      -6.335960      1.635635     -1.278278
  H      -6.036102      2.497079     -0.960954
  H      -6.472228      1.743204     -2.228549
  O      -5.798899      0.191100      1.199001
  H      -6.312872      0.989103      1.375842
  H      -5.099356      0.179805      1.864708
  O      -4.312603     -0.138322     -2.672900
  H      -4.588120      0.567005     -3.272200
  H      -3.347783     -0.150457     -2.718952
34
Coordinates from ORCA-job zn_P0_cplx E -2769.877051061188
  Zn     -5.083823      0.082793     -0.748124
  C       2.655725     -3.046770      0.574581
  O       1.416588     -2.346017      0.441208
  C       1.499414     -1.024532      0.328916
  O       2.554526     -0.423686      0.339359
  C       0.179074     -0.374013      0.189257
  C      -0.998735     -1.117115      0.194211
  C      -2.197018     -0.450206      0.052944
  O      -3.416809     -1.066293      0.045438
  C      -2.238461      0.928539     -0.092459
  O      -3.466371      1.499431     -0.226742
  C      -1.059966      1.666395     -0.093585
  O      -1.190436      3.005215     -0.246004
  C       0.149429      1.009692      0.048777
  H       3.282592     -2.879041     -0.301654
  H       2.391152     -4.098185      0.652372
  H       3.181351     -2.721922      1.472887
  H      -0.994322     -2.193965      0.299065
  H      -3.337015     -2.024028     -0.055570
  H      -3.409094      2.395269     -0.590510
  H      -0.318204      3.417889     -0.273720
  H       1.070272      1.580542      0.047661
  O      -6.300289     -1.536745     -1.099907
  H      -5.922809     -2.189185     -1.702796
  H      -6.548905     -2.022880     -0.303683
  O      -6.336957      1.635928     -1.281454
  H      -6.048649      2.493977     -0.944733
  H      -6.453337      1.758000     -2.232621
  O      -5.798027      0.192453      1.199544
  H      -6.308265      0.992328      1.378548
  H      -5.096689      0.176503      1.863204
  O      -4.316510     -0.143440     -2.674980
  H      -4.599754      0.554017     -3.279842
  H      -3.351682     -0.147283     -2.721825
34
Coordinates from ORCA-job zn_P0_cplx E -2769.877041366987
  Zn     -5.084246      0.083171     -0.748577
  C       2.655863     -3.046383      0.571487
  O       1.416505     -2.346113      0.439319
  C       1.498638     -1.024262      0.329944
  O       2.553613     -0.423210      0.341925
  C       0.178172     -0.374020      0.190676
  C      -0.999616     -1.117290      0.196363
  C      -2.197846     -0.450407      0.054840
  O      -3.417845     -1.066269      0.047621
  C      -2.238734      0.928152     -0.091931
  O      -3.466477      1.499744     -0.227455
  C      -1.060442      1.666227     -0.093152
  O      -1.191326      3.004765     -0.246587
  C       0.148904      1.009746      0.049446
  H       3.283394     -2.875803     -0.303746
  H       2.392069     -4.098221      0.646198
  H       3.181028     -2.723744      1.470887
  H      -0.992831     -2.194048      0.301992
  H      -3.337582     -2.023961     -0.053579
  H      -3.407265      2.393100     -0.597068
  H      -0.319335      3.417897     -0.274620
  H       1.070788      1.578880      0.048106
  O      -6.299677     -1.537318     -1.099392
  H      -5.919155     -2.190250     -1.699922
  H      -6.548297     -2.021748     -0.302055
  O      -6.337811      1.634153     -1.287167
  H      -6.065547      2.488224     -0.927696
  H      -6.432003      1.772376     -2.238555
  O      -5.801388      0.195135      1.198123
  H      -6.308623      0.997042      1.376731
  H      -5.100596      0.176543      1.862303
  O      -4.314414     -0.147036     -2.674084
  H      -4.600322      0.546344     -3.282320
  H      -3.349601     -0.147752     -2.720297
34
Coordinates from ORCA-job zn_P0_cplx E -2769.877054124475
  Zn     -5.085610      0.082891     -0.749293
  C       2.657174     -3.045136      0.569151
  O       1.417196     -2.346019      0.437856
  C       1.498203     -1.023911      0.329538
  O       2.552869     -0.422315      0.341353
  C       0.177367     -0.374419      0.190664
  C      -1.000262     -1.118192      0.198076
  C      -2.198632     -0.451627      0.057271
  O      -3.419073     -1.067120      0.050692
  C      -2.239144      0.926767     -0.090753
  O      -3.466942      1.498634     -0.226063
  C      -1.061283      1.665218     -0.094154
  O      -1.193597      3.003402     -0.249690
  C       0.148312      1.009379      0.047887
  H       3.284837     -2.872788     -0.305647
  H       2.394577     -4.097414      0.642253
  H       3.182000     -2.723536      1.469135
  H      -0.990498     -2.194825      0.304707
  H      -3.338506     -2.024912     -0.049402
  H      -3.405863      2.393241     -0.592316
  H      -0.322146      3.417654     -0.277681
  H       1.071228      1.576768      0.045224
  O      -6.302397     -1.536187     -1.100524
  H      -5.918575     -2.189312     -1.698813
  H      -6.550925     -2.018908     -0.302066
  O      -6.339159      1.631614     -1.294412
  H      -6.083822      2.480042     -0.909953
  H      -6.407424      1.787826     -2.245215
  O      -5.806163      0.197548      1.196190
  H      -6.309862      1.002079      1.373517
  H      -5.105352      0.177760      1.860406
  O      -4.311016     -0.149878     -2.672350
  H      -4.593296      0.544679     -3.280866
  H      -3.346223     -0.155340     -2.716963
34
Coordinates from ORCA-job zn_P0_cplx E -2769.877075711707
  Zn     -5.086473      0.082357     -0.749998
  C       2.658199     -3.044400      0.566489
  O       1.417774     -2.345836      0.436420
  C       1.498165     -1.023606      0.328690
  O       2.552625     -0.421629      0.339941
  C       0.177034     -0.374528      0.190741
  C      -1.000475     -1.118566      0.200174
  C      -2.199085     -0.452372      0.060121
  O      -3.419684     -1.067775      0.054422
  C      -2.239621      0.925863     -0.089114
  O      -3.467386      1.497764     -0.224237
  C      -1.061982      1.664461     -0.095141
  O      -1.195486      3.002358     -0.253046
  C       0.147908      1.009194      0.046400
  H       3.285334     -2.871080     -0.308483
  H       2.396211     -4.096905      0.638746
  H       3.183208     -2.723508      1.466612
  H      -0.989627     -2.195096      0.307702
  H      -3.338847     -2.025675     -0.044368
  H      -3.404735      2.394318     -0.585352
  H      -0.324460      3.417487     -0.281122
  H       1.071051      1.576156      0.041924
  O      -6.304600     -1.535214     -1.101819
  H      -5.918726     -2.188861     -1.698236
  H      -6.554236     -2.016424     -0.302776
  O      -6.340517      1.628409     -1.301982
  H      -6.103441      2.470950     -0.893547
  H      -6.383444      1.802785     -2.251089
  O      -5.810965      0.200122      1.193870
  H      -6.311932      1.006770      1.369668
  H      -5.110726      0.179306      1.858746
  O      -4.306874     -0.152833     -2.670272
  H      -4.584082      0.543667     -3.278838
  H      -3.342109     -0.163997     -2.713482
34
Coordinates from ORCA-job zn_P0_cplx E -2769.877085243276
  Zn     -5.087414      0.081725     -0.751311
  C       2.659411     -3.043672      0.563302
  O       1.418519     -2.345525      0.434582
  C       1.498380     -1.023187      0.327828
  O       2.552588     -0.420754      0.338833
  C       0.176941     -0.374468      0.190850
  C      -1.000433     -1.118748      0.202561
  C      -2.199399     -0.453063      0.063189
  O      -3.420047     -1.068422      0.058733
  C      -2.240160      0.924976     -0.087566
  O      -3.467802      1.496687     -0.222793
  C      -1.062703      1.663678     -0.096662
  O      -1.197537      3.001259     -0.257506
  C       0.147554      1.009087      0.044628
  H       3.285957     -2.869121     -0.311826
  H       2.397910     -4.096394      0.634350
  H       3.184414     -2.723768      1.463761
  H      -0.989466     -2.195164      0.311226
  H      -3.339043     -2.026551     -0.037565
  H      -3.403844      2.396226     -0.576098
  H      -0.326948      3.417297     -0.285714
  H       1.070444      1.576416      0.037982
  O      -6.307052     -1.534277     -1.103280
  H      -5.920045     -2.189076     -1.697659
  H      -6.559080     -2.013790     -0.303998
  O      -6.342558      1.623931     -1.312130
  H      -6.134109      2.456259     -0.868395
  H      -6.346607      1.827115     -2.256484
  O      -5.816447      0.203813      1.190467
  H      -6.314427      1.012781      1.364297
  H      -5.116571      0.182076      1.855760
  O      -4.301895     -0.157932     -2.667907
  H      -4.573379      0.539440     -3.278066
  H      -3.337156     -0.175189     -2.709628
34
Coordinates from ORCA-job zn_P0_cplx E -2769.877110225605
  Zn     -5.087874      0.081698     -0.753008
  C       2.660132     -3.043381      0.562344
  O       1.419093     -2.345362      0.433460
  C       1.498743     -1.022931      0.328205
  O       2.552757     -0.420167      0.340728
  C       0.177239     -0.374369      0.190926
  C      -1.000035     -1.118759      0.203184
  C      -2.199256     -0.453454      0.063550
  O      -3.419770     -1.068858      0.059687
  C      -2.240180      0.924461     -0.088255
  O      -3.467602      1.496006     -0.224247
  C      -1.062762      1.663221     -0.098374
  O      -1.198210      3.000626     -0.260850
  C       0.147638      1.009050      0.043649
  H       3.287264     -2.867417     -0.312067
  H       2.398800     -4.096259      0.631661
  H       3.184062     -2.724565      1.463799
  H      -0.989705     -2.195105      0.312640
  H      -3.338833     -2.027211     -0.034278
  H      -3.403464      2.397375     -0.572752
  H      -0.327846      3.417127     -0.289118
  H       1.070054      1.577132      0.036338
  O      -6.307944     -1.534158     -1.103537
  H      -5.921587     -2.189883     -1.697289
  H      -6.561387     -2.012922     -0.304290
  O      -6.344475      1.620641     -1.319516
  H      -6.167711      2.441365     -0.841571
  H      -6.312314      1.854087     -2.256296
  O      -5.818534      0.207352      1.187693
  H      -6.314145      1.017870      1.361110
  H      -5.118531      0.183995      1.852812
  O      -4.299935     -0.163056     -2.667497
  H      -4.570475      0.531064     -3.281797
  H      -3.335211     -0.181554     -2.709283
34
Coordinates from ORCA-job zn_P0_cplx E -2769.877093492071
  Zn     -5.088686      0.080661     -0.753175
  C       2.661136     -3.042897      0.567362
  O       1.420257     -2.344598      0.434032
  C       1.500463     -1.022542      0.326880
  O       2.554215     -0.419293      0.340791
  C       0.179027     -0.374038      0.187468
  C      -0.997863     -1.118710      0.198601
  C      -2.197824     -0.454339      0.059500
  O      -3.417527     -1.070540      0.055800
  C      -2.240203      0.923787     -0.090125
  O      -3.467492      1.494409     -0.223601
  C      -1.062719      1.662565     -0.101718
  O      -1.199642      3.000215     -0.264218
  C       0.148272      1.009244      0.040595
  H       3.289699     -2.869140     -0.306380
  H       2.398912     -4.095446      0.638293
  H       3.182145     -2.722285      1.469794
  H      -0.991519     -2.195162      0.307342
  H      -3.337698     -2.029052     -0.036940
  H      -3.405649      2.403631     -0.551185
  H      -0.329630      3.417479     -0.292568
  H       1.068256      1.581267      0.033196
  O      -6.313185     -1.531732     -1.103022
  H      -5.934088     -2.186540     -1.702250
  H      -6.565687     -2.013366     -0.305381
  O      -6.344305      1.620400     -1.317697
  H      -6.163647      2.441610     -0.841845
  H      -6.311857      1.852060     -2.254781
  O      -5.814831      0.204867      1.188427
  H      -6.310221      1.015254      1.363114
  H      -5.112449      0.182271      1.851086
  O      -4.304766     -0.161594     -2.668901
  H      -4.562453      0.541751     -3.278403
  H      -3.340444     -0.196534     -2.712330
34
Coordinates from ORCA-job zn_P0_cplx E -2769.877097934815
  Zn     -5.087837      0.081980     -0.753430
  C       2.660148     -3.043623      0.565305
  O       1.419495     -2.345233      0.432888
  C       1.499516     -1.022812      0.329396
  O       2.553381     -0.419834      0.345922
  C       0.178300     -0.374064      0.189794
  C      -0.998830     -1.118422      0.199567
  C      -2.198320     -0.453465      0.058908
  O      -3.418169     -1.069369      0.054593
  C      -2.239811      0.924593     -0.091553
  O      -3.467024      1.495724     -0.227640
  C      -1.062168      1.663396     -0.099527
  O      -1.197457      3.001081     -0.260277
  C       0.148225      1.009377      0.043950
  H       3.289914     -2.866845     -0.307021
  H       2.398261     -4.096454      0.632847
  H       3.180804     -2.725411      1.468840
  H      -0.990999     -2.194863      0.308289
  H      -3.337934     -2.027753     -0.039355
  H      -3.405353      2.399741     -0.569482
  H      -0.327029      3.417441     -0.288782
  H       1.069349      1.579617      0.038567
  O      -6.308205     -1.534536     -1.100315
  H      -5.927699     -2.189957     -1.698090
  H      -6.559923     -2.015509     -0.301926
  O      -6.343066      1.620987     -1.319980
  H      -6.179494      2.438640     -0.832412
  H      -6.302121      1.862916     -2.254025
  O      -5.814174      0.208041      1.188024
  H      -6.309052      1.018562      1.363314
  H      -5.112330      0.183312      1.851098
  O      -4.305681     -0.165294     -2.669735
  H      -4.575752      0.526639     -3.286803
  H      -3.340968     -0.184938     -2.713186
34
Coordinates from ORCA-job zn_P0_cplx E -2769.877126417038
  Zn     -5.087325      0.081851     -0.752613
  C       2.659373     -3.043810      0.563511
  O       1.418720     -2.345355      0.432309
  C       1.498713     -1.022892      0.329023
  O       2.552700     -0.420108      0.344836
  C       0.177496     -0.373984      0.190497
  C      -0.999727     -1.118186      0.200706
  C      -2.199074     -0.452951      0.060331
  O      -3.419038     -1.068714      0.056249
  C      -2.240341      0.925103     -0.090198
  O      -3.467734      1.496219     -0.226194
  C      -1.062629      1.663891     -0.097659
  O      -1.197330      3.001650     -0.257406
  C       0.147631      1.009540      0.045139
  H       3.288516     -2.866899     -0.309255
  H       2.397536     -4.096644      0.631163
  H       3.181030     -2.725705      1.466523
  H      -0.991140     -2.194654      0.309166
  H      -3.338748     -2.026833     -0.040515
  H      -3.406436      2.397938     -0.574155
  H      -0.326691      3.417440     -0.287615
  H       1.069258      1.578967      0.039763
  O      -6.305906     -1.536535     -1.099585
  H      -5.923164     -2.192149     -1.695777
  H      -6.557038     -2.016751     -0.300501
  O      -6.340478      1.622309     -1.319931
  H      -6.172166      2.442060     -0.837519
  H      -6.302074      1.859006     -2.255530
  O      -5.815376      0.208476      1.188188
  H      -6.311395      1.018420      1.362835
  H      -5.114473      0.184519      1.852259
  O      -4.305265     -0.165297     -2.669585
  H      -4.578972      0.523644     -3.288333
  H      -3.340456     -0.179902     -2.712365
34
Coordinates from ORCA-job zn_P0_cplx E -2769.877144735540
  Zn     -5.087353      0.081469     -0.752169
  C       2.658927     -3.043647      0.562407
  O       1.418225     -2.345200      0.431548
  C       1.498129     -1.022708      0.328751
  O       2.552099     -0.419875      0.344668
  C       0.176893     -0.373758      0.190750
  C      -1.000315     -1.117932      0.200787
  C      -2.199679     -0.452649      0.060651
  O      -3.419624     -1.068453      0.056507
  C      -2.241052      0.925461     -0.089456
  O      -3.468608      1.496076     -0.225293
  C      -1.063314      1.664303     -0.096331
  O      -1.197733      3.002217     -0.254918
  C       0.146924      1.009843      0.046125
  H       3.287939     -2.866512     -0.310410
  H       2.397108     -4.096490      0.629907
  H       3.180712     -2.725644      1.465382
  H      -0.991805     -2.194450      0.308745
  H      -3.339702     -2.026314     -0.043189
  H      -3.408489      2.397720     -0.573614
  H      -0.326954      3.417569     -0.287082
  H       1.068503      1.579352      0.041001
  O      -6.305266     -1.538660     -1.097738
  H      -5.922418     -2.193750     -1.694435
  H      -6.554089     -2.018967     -0.297985
  O      -6.336845      1.624037     -1.320796
  H      -6.168144      2.444137     -0.839000
  H      -6.294388      1.859713     -2.256543
  O      -5.815738      0.209287      1.188285
  H      -6.312121      1.018998      1.362945
  H      -5.115146      0.185584      1.852690
  O      -4.306490     -0.166580     -2.670393
  H      -4.580538      0.520075     -3.291455
  H      -3.341651     -0.180592     -2.712578
34
Coordinates from ORCA-job zn_P0_cplx E -2769.877128841901
  Zn     -5.087886      0.081041     -0.751873
  C       2.658820     -3.043150      0.561565
  O       1.417984     -2.344836      0.430889
  C       1.497753     -1.022339      0.328147
  O       2.551644     -0.419354      0.343842
  C       0.176428     -0.373525      0.190469
  C      -1.000711     -1.117822      0.200326
  C      -2.200123     -0.452567      0.060762
  O      -3.420151     -1.068391      0.056533
  C      -2.241773      0.925627     -0.088672
  O      -3.469500      1.495618     -0.224057
  C      -1.064136      1.664544     -0.095583
  O      -1.198695      3.002588     -0.253463
  C       0.146197      1.010126      0.046406
  H       3.287581     -2.866107     -0.311443
  H       2.397091     -4.096006      0.629270
  H       3.180713     -2.724992      1.464416
  H      -0.992445     -2.194385      0.307834
  H      -3.340688     -2.026072     -0.045303
  H      -3.410020      2.398819     -0.568394
  H      -0.327896      3.417822     -0.286631
  H       1.067547      1.580006      0.041333
  O      -6.306357     -1.539760     -1.095924
  H      -5.924504     -2.193884     -1.694289
  H      -6.552210     -2.020816     -0.295727
  O      -6.333286      1.625818     -1.321995
  H      -6.163495      2.446399     -0.841339
  H      -6.287957      1.859935     -2.257976
  O      -5.816293      0.209654      1.188353
  H      -6.312646      1.019380      1.363076
  H      -5.115633      0.186010      1.852713
  O      -4.307378     -0.168191     -2.670844
  H      -4.577432      0.519069     -3.292943
  H      -3.342548     -0.186599     -2.711717
34
Coordinates from ORCA-job zn_P0_cplx E -2769.877125767332
  Zn     -5.088275      0.080728     -0.751735
  C       2.658892     -3.042717      0.560825
  O       1.417932     -2.344547      0.430493
  C       1.497595     -1.022073      0.327199
  O       2.551444     -0.419007      0.342135
  C       0.176153     -0.373421      0.189979
  C      -1.000940     -1.117861      0.200175
  C      -2.200372     -0.452604      0.061372
  O      -3.420570     -1.068324      0.057368
  C      -2.242246      0.925632     -0.087674
  O      -3.470120      1.495319     -0.222355
  C      -1.064726      1.664588     -0.095425
  O      -1.199631      3.002630     -0.253425
  C       0.145728      1.010234      0.045968
  H       3.287154     -2.866079     -0.312619
  H       2.397276     -4.095566      0.629153
  H       3.181243     -2.724165      1.463270
  H      -0.992635     -2.194436      0.307542
  H      -3.341380     -2.025901     -0.045684
  H      -3.410373      2.399895     -0.562994
  H      -0.328917      3.418027     -0.286786
  H       1.067006      1.580229      0.040465
  O      -6.307365     -1.539989     -1.095184
  H      -5.926088     -2.193616     -1.694447
  H      -6.551849     -2.021418     -0.294806
  O      -6.331128      1.626682     -1.323517
  H      -6.162655      2.446924     -0.841830
  H      -6.282998      1.861366     -2.259189
  O      -5.817736      0.209894      1.187897
  H      -6.314086      1.019707      1.362261
  H      -5.117359      0.186335      1.852572
  O      -4.306751     -0.169478     -2.670467
  H      -4.572264      0.519424     -3.292700
  H      -3.341965     -0.192748     -2.710075
34
Coordinates from ORCA-job zn_P0_cplx E -2769.877126121749
  Zn     -5.088644      0.080480     -0.751615
  C       2.658920     -3.042334      0.560353
  O       1.417895     -2.344263      0.430334
  C       1.497502     -1.021844      0.325907
  O       2.551365     -0.418795      0.339620
  C       0.175935     -0.373357      0.189159
  C      -1.001116     -1.117981      0.199915
  C      -2.200537     -0.452676      0.061987
  O      -3.420976     -1.068170      0.058359
  C      -2.242604      0.925592     -0.086675
  O      -3.470636      1.495146     -0.220444
  C      -1.065234      1.664608     -0.095512
  O      -1.200589      3.002588     -0.253823
  C       0.145348      1.010297      0.045090
  H       3.286576     -2.866484     -0.313689
  H       2.397375     -4.095135      0.629754
  H       3.181975     -2.723107      1.462155
  H      -0.992482     -2.194554      0.307207
  H      -3.341999     -2.025677     -0.045539
  H      -3.410221      2.401039     -0.557445
  H      -0.330027      3.418352     -0.286649
  H       1.066693      1.580180      0.039011
  O      -6.308283     -1.539868     -1.094740
  H      -5.927511     -2.193039     -1.694825
  H      -6.551631     -2.021786     -0.294309
  O      -6.329376      1.627430     -1.324734
  H      -6.161477      2.447560     -0.842723
  H      -6.280572      1.862096     -2.260350
  O      -5.819525      0.209785      1.187322
  H      -6.316124      1.019565      1.361117
  H      -5.119554      0.186524      1.852441
  O      -4.305552     -0.170507     -2.669712
  H      -4.566083      0.520915     -3.291268
  H      -3.340836     -0.198916     -2.707917
34
Coordinates from ORCA-job zn_P0_cplx E -2769.877130677849
  Zn     -5.088700      0.080435     -0.751682
  C       2.658834     -3.042278      0.560245
  O       1.417840     -2.344180      0.430406
  C       1.497474     -1.021789      0.325411
  O       2.551382     -0.418816      0.338552
  C       0.175879     -0.373326      0.188851
  C      -1.001159     -1.118013      0.199807
  C      -2.200562     -0.452668      0.062128
  O      -3.421086     -1.068038      0.058652
  C      -2.242648      0.925600     -0.086440
  O      -3.470711      1.495244     -0.219911
  C      -1.065317      1.664651     -0.095589
  O      -1.200818      3.002574     -0.254058
  C       0.145284      1.010329      0.044762
  H       3.286211     -2.866834     -0.314084
  H       2.397259     -4.095038      0.630172
  H       3.182296     -2.722735      1.461704
  H      -0.992276     -2.194586      0.307050
  H      -3.342126     -2.025540     -0.045339
  H      -3.409919      2.401440     -0.556039
  H      -0.330343      3.418575     -0.286155
  H       1.066731      1.580048      0.038500
  O      -6.308251     -1.539845     -1.094552
  H      -5.927613     -2.193005     -1.694746
  H      -6.551454     -2.021842     -0.294118
  O      -6.328948      1.627606     -1.325100
  H      -6.161613      2.447465     -0.842471
  H      -6.280069      1.862803     -2.260584
  O      -5.820255      0.209680      1.186948
  H      -6.317294      1.019255      1.360395
  H      -5.120515      0.186896      1.852316
  O      -4.304981     -0.170966     -2.669392
  H      -4.564247      0.521258     -3.290592
  H      -3.340291     -0.200694     -2.707282
34
Coordinates from ORCA-job zn_P0_cplx E -2769.877128256311
  Zn     -5.088693      0.080354     -0.751829
  C       2.658659     -3.042298      0.560502
  O       1.417732     -2.344152      0.430642
  C       1.497440     -1.021815      0.324875
  O       2.551427     -0.418968      0.337416
  C       0.175855     -0.373313      0.188397
  C      -1.001177     -1.118031      0.199472
  C      -2.200573     -0.452638      0.061970
  O      -3.421145     -1.067888      0.058662
  C      -2.242637      0.925626     -0.086477
  O      -3.470696      1.495463     -0.219587
  C      -1.065301      1.664700     -0.095808
  O      -1.200892      3.002568     -0.254318
  C       0.145298      1.010348      0.044323
  H       3.285819     -2.867432     -0.314104
  H       2.397011     -4.094993      0.631141
  H       3.182481     -2.722269      1.461586
  H      -0.992071     -2.194604      0.306657
  H      -3.342211     -2.025382     -0.045435
  H      -3.409621      2.401795     -0.555278
  H      -0.330513      3.418853     -0.285335
  H       1.066856      1.579886      0.037964
  O      -6.307834     -1.540043     -1.094251
  H      -5.927298     -2.193201     -1.694527
  H      -6.550833     -2.022104     -0.293783
  O      -6.328604      1.627858     -1.324930
  H      -6.160914      2.447501     -0.842085
  H      -6.280541      1.863321     -2.260392
  O      -5.820854      0.209385      1.186562
  H      -6.318787      1.018484      1.359647
  H      -5.121462      0.187428      1.852314
  O      -4.304616     -0.171148     -2.669262
  H      -4.563360      0.521884     -3.289788
  H      -3.339949     -0.201514     -2.707180
34
Coordinates from ORCA-job zn_P0_cplx E -2769.877124965493
  Zn     -5.088735      0.080213     -0.752073
  C       2.658460     -3.042328      0.560939
  O       1.417592     -2.344130      0.430920
  C       1.497381     -1.021846      0.324507
  O       2.551432     -0.419100      0.336593
  C       0.175832     -0.373289      0.187995
  C      -1.001201     -1.117991      0.199029
  C      -2.200603     -0.452567      0.061570
  O      -3.421171     -1.067758      0.058292
  C      -2.242626      0.925704     -0.086706
  O      -3.470653      1.495679     -0.219547
  C      -1.065251      1.664773     -0.096025
  O      -1.200827      3.002616     -0.254463
  C       0.145329      1.010382      0.043973
  H       3.285519     -2.867967     -0.313842
  H       2.396723     -4.094958      0.632173
  H       3.182467     -2.721862      1.461762
  H      -0.992043     -2.194570      0.306102
  H      -3.342300     -2.025242     -0.045975
  H      -3.409596      2.402167     -0.554791
  H      -0.330498      3.419066     -0.284500
  H       1.066936      1.579847      0.037623
  O      -6.307292     -1.540581     -1.093713
  H      -5.926999     -2.193726     -1.694162
  H      -6.549913     -2.022699     -0.293164
  O      -6.328124      1.628283     -1.324589
  H      -6.159807      2.447520     -0.841278
  H      -6.280223      1.864298     -2.259925
  O      -5.821166      0.209009      1.186253
  H      -6.320237      1.017465      1.359033
  H      -5.121955      0.188169      1.852232
  O      -4.304758     -0.171355     -2.669481
  H      -4.563599      0.522188     -3.289403
  H      -3.340100     -0.201749     -2.707599
34
Coordinates from ORCA-job zn_P0_cplx E -2769.877128518362
  Zn     -5.088813      0.080036     -0.752363
  C       2.658278     -3.042389      0.561434
  O       1.417457     -2.344136      0.431189
  C       1.497341     -1.021904      0.324310
  O       2.551443     -0.419228      0.336171
  C       0.175848     -0.373269      0.187692
  C      -1.001212     -1.117886      0.198557
  C      -2.200626     -0.452442      0.061033
  O      -3.421140     -1.067665      0.057674
  C      -2.242592      0.925846     -0.087072
  O      -3.470551      1.495890     -0.219784
  C      -1.065142      1.664862     -0.096173
  O      -1.200605      3.002737     -0.254353
  C       0.145404      1.010420      0.043806
  H       3.285294     -2.868452     -0.313461
  H       2.396433     -4.094955      0.633144
  H       3.182351     -2.721548      1.462086
  H      -0.992216     -2.194476      0.305526
  H      -3.342319     -2.025136     -0.046744
  H      -3.409713      2.402510     -0.554688
  H      -0.330269      3.419223     -0.283655
  H       1.066984      1.579926      0.037606
  O      -6.306718     -1.541338     -1.093056
  H      -5.926772     -2.194447     -1.693753
  H      -6.548919     -2.023461     -0.292392
  O      -6.327687      1.628754     -1.324152
  H      -6.158312      2.447665     -0.840640
  H      -6.279976      1.865083     -2.259412
  O      -5.821149      0.208672      1.186112
  H      -6.321449      1.016392      1.358757
  H      -5.122061      0.188944      1.852261
  O      -4.305268     -0.171425     -2.669964
  H      -4.564711      0.522305     -3.289426
  H      -3.340618     -0.201443     -2.708508
34
Coordinates from ORCA-job zn_P0_cplx E -2769.877128180900
  Zn     -5.088915      0.079945     -0.752515
  C       2.658245     -3.042416      0.561704
  O       1.417406     -2.344191      0.431267
  C       1.497300     -1.021965      0.324443
  O       2.551394     -0.419267      0.336465
  C       0.175839     -0.373305      0.187663
  C      -1.001252     -1.117844      0.198315
  C      -2.200656     -0.452384      0.060683
  O      -3.421129     -1.067679      0.057191
  C      -2.242588      0.925924     -0.087335
  O      -3.470516      1.495928     -0.220101
  C      -1.065087      1.664875     -0.096225
  O      -1.200418      3.002804     -0.254249
  C       0.145429      1.010396      0.043853
  H       3.285360     -2.868482     -0.313119
  H       2.396409     -4.094987      0.633402
  H       3.182158     -2.721534      1.462429
  H      -0.992444     -2.194445      0.305266
  H      -3.342296     -2.025154     -0.047166
  H      -3.409914      2.402560     -0.554997
  H      -0.330017      3.419152     -0.283591
  H       1.066969      1.579968      0.037801
  O      -6.306459     -1.541792     -1.092769
  H      -5.926632     -2.194854     -1.693579
  H      -6.548384     -2.023911     -0.292027
  O      -6.327569      1.628971     -1.323889
  H      -6.157611      2.447756     -0.840345
  H      -6.279853      1.865386     -2.259122
  O      -5.820826      0.208560      1.186211
  H      -6.321656      1.015936      1.358914
  H      -5.121611      0.189344      1.852239
  O      -4.305725     -0.171293     -2.670304
  H      -4.565903      0.522205     -3.289724
  H      -3.341054     -0.200545     -2.709030
