34
Coordinates from ORCA-job zn_P0_cplx E -2769.877128180900
  Zn         -5.08891497877833      0.07994494778301     -0.75251463697630
  C           2.65824497168795     -3.04241639166279      0.56170371310202
  O           1.41740603764054     -2.34419104309624      0.43126695295485
  C           1.49730021258840     -1.02196496570889      0.32444325744934
  O           2.55139351540562     -0.41926731353356      0.33646529015528
  C           0.17583927303667     -0.37330460181225      0.18766309025350
  C          -1.00125197978409     -1.11784403903054      0.19831510620024
  C          -2.20065586106654     -0.45238375960477      0.06068330527889
  O          -3.42112933728841     -1.06767937153863      0.05719103099975
  C          -2.24258816042477      0.92592421132019     -0.08733456026099
  O          -3.47051579567047      1.49592765016906     -0.22010057603696
  C          -1.06508686351535      1.66487493367409     -0.09622480683145
  O          -1.20041794575473      3.00280430780288     -0.25424923750448
  C           0.14542916878643      1.01039636112030      0.04385265783779
  H           3.28536028312588     -2.86848150836583     -0.31311915061439
  H           2.39640858273875     -4.09498662968675      0.63340230221293
  H           3.18215834552927     -2.72153394673123      1.46242876694920
  H          -0.99244361611465     -2.19444546764454      0.30526587076728
  H          -3.34229584884069     -2.02515351988626     -0.04716601889102
  H          -3.40991355464049      2.40256030774122     -0.55499716037541
  H          -0.33001678856303      3.41915166810434     -0.28359054394987
  H           1.06696895425920      1.57996777424960      0.03780120331278
  O          -6.30645920689877     -1.54179164901641     -1.09276866253428
  H          -5.92663152410519     -2.19485396151761     -1.69357941134288
  H          -6.54838404543570     -2.02391063270349     -0.29202712566106
  O          -6.32756883675679      1.62897082188037     -1.32388886585566
  H          -6.15761123561756      2.44775642599496     -0.84034523000493
  H          -6.27985288770323      1.86538630185079     -2.25912216159417
  O          -5.82082590613425      0.20855994425646      1.18621126294458
  H          -6.32165614857080      1.01593560433570      1.35891445785597
  H          -5.12161053245323      0.18934437706813      1.85223931844022
  O          -4.30572502648201     -0.17129287320129     -2.67030423390216
  H          -4.56590340483398      0.52220467290561     -3.28972367965384
  H          -3.34105398936542     -0.20054525551562     -2.70902995472473
