19
Coordinates from ORCA-job lig_P2_L2m E -684.404064284454
  C       3.984150     -0.265299     -0.171684
  O       2.628586      0.152007     -0.299447
  C       1.685885     -0.677240      0.253058
  O       2.058847     -1.715145      0.818448
  C       0.343756     -0.222627      0.100941
  C      -0.711399     -0.992910      0.630995
  C      -2.059714     -0.645080      0.540579
  O      -3.005513     -1.380970      1.042077
  C      -2.350364      0.596443     -0.151627
  O      -3.540465      1.082899     -0.335557
  C      -1.264387      1.350797     -0.675717
  O      -1.652108      2.519266     -1.319515
  C       0.046757      0.978198     -0.567121
  H       4.123898     -1.236714     -0.650707
  H       4.565585      0.507637     -0.664973
  H       4.251264     -0.353298      0.883571
  H      -0.459667     -1.917423      1.143409
  H      -2.634289      2.471181     -1.212910
  H       0.830207      1.591386     -0.985121
19
Coordinates from ORCA-job lig_P2_L2m E -684.405263400627
  C       3.985274     -0.269723     -0.169759
  O       2.628714      0.145677     -0.298447
  C       1.695485     -0.678360      0.254136
  O       2.055877     -1.709938      0.822856
  C       0.343828     -0.219046      0.098636
  C      -0.710056     -0.990573      0.629283
  C      -2.062358     -0.639855      0.535932
  O      -3.023937     -1.369215      1.027783
  C      -2.353275      0.598006     -0.151762
  O      -3.549759      1.071682     -0.321675
  C      -1.269862      1.350851     -0.675359
  O      -1.655482      2.513642     -1.313985
  C       0.046446      0.981072     -0.570537
  H       4.137657     -1.238532     -0.648870
  H       4.570350      0.500509     -0.666602
  H       4.265212     -0.347701      0.882330
  H      -0.461691     -1.915490      1.141871
  H      -2.630859      2.461511     -1.205535
  H       0.829462      1.598587     -0.991596
19
Coordinates from ORCA-job lig_P2_L2m E -684.405646685210
  C       3.983699     -0.271908     -0.170399
  O       2.626003      0.137412     -0.296093
  C       1.703765     -0.681189      0.259896
  O       2.049677     -1.709344      0.831488
  C       0.342426     -0.217908      0.099118
  C      -0.707457     -0.992206      0.629218
  C      -2.061321     -0.639098      0.529917
  O      -3.034353     -1.361885      1.018270
  C      -2.352984      0.598757     -0.151741
  O      -3.555079      1.059315     -0.319474
  C      -1.273969      1.350878     -0.674152
  O      -1.655715      2.513184     -1.310486
  C       0.046528      0.981140     -0.570358
  H       4.147593     -1.238643     -0.649261
  H       4.569445      0.495012     -0.673504
  H       4.278182     -0.336330      0.878346
  H      -0.462387     -1.917044      1.143522
  H      -2.630642      2.471498     -1.203455
  H       0.827618      1.601466     -0.992149
19
Coordinates from ORCA-job lig_P2_L2m E -684.405675803942
  C       3.982880     -0.270131     -0.169669
  O       2.624598      0.134064     -0.297523
  C       1.704292     -0.686000      0.255046
  O       2.047487     -1.711463      0.832956
  C       0.340546     -0.220081      0.097117
  C      -0.707155     -0.994257      0.629729
  C      -2.060082     -0.638245      0.532699
  O      -3.033455     -1.362710      1.019181
  C      -2.353150      0.598287     -0.152427
  O      -3.556111      1.062602     -0.310644
  C      -1.274942      1.350512     -0.673853
  O      -1.652581      2.514207     -1.311416
  C       0.046018      0.979481     -0.569579
  H       4.151940     -1.235438     -0.649757
  H       4.568657      0.497810     -0.671279
  H       4.276880     -0.331946      0.879443
  H      -0.463081     -1.919907      1.142755
  H      -2.627991      2.476550     -1.212024
  H       0.826279      1.599772     -0.992057
19
Coordinates from ORCA-job lig_P2_L2m E -684.405695607987
  C       3.981809     -0.271308     -0.174247
  O       2.623871      0.133976     -0.295173
  C       1.705372     -0.680824      0.265488
  O       2.046579     -1.710275      0.838648
  C       0.339369     -0.217497      0.103422
  C      -0.706922     -0.995393      0.631993
  C      -2.059328     -0.641040      0.530107
  O      -3.031734     -1.368752      1.013901
  C      -2.353725      0.596804     -0.154381
  O      -3.558773      1.055958     -0.319854
  C      -1.275760      1.350870     -0.671924
  O      -1.648603      2.516528     -1.310554
  C       0.045676      0.980813     -0.563232
  H       4.146148     -1.238829     -0.651690
  H       4.566947      0.492400     -0.682943
  H       4.282300     -0.327352      0.873441
  H      -0.463524     -1.920990      1.145040
  H      -2.624010      2.484863     -1.216341
  H       0.825336      1.603155     -0.983002
19
Coordinates from ORCA-job lig_P2_L2m E -684.405701335318
  C       3.982135     -0.269813     -0.172039
  O       2.623821      0.132864     -0.298321
  C       1.704403     -0.683899      0.258684
  O       2.047339     -1.709731      0.838096
  C       0.338995     -0.220066      0.099430
  C      -0.707209     -0.996781      0.630403
  C      -2.059332     -0.641345      0.530413
  O      -3.030396     -1.366493      1.019897
  C      -2.353896      0.598048     -0.151595
  O      -3.559291      1.055738     -0.319003
  C      -1.276050      1.350121     -0.672363
  O      -1.647265      2.516904     -1.310295
  C       0.044993      0.977899     -0.567307
  H       4.149230     -1.237338     -0.648495
  H       4.567574      0.495051     -0.678535
  H       4.277715     -0.325487      0.877061
  H      -0.463873     -1.922084      1.143898
  H      -2.622092      2.490012     -1.212119
  H       0.824226      1.599507     -0.989113
19
Coordinates from ORCA-job lig_P2_L2m E -684.405703488403
  C       3.982327     -0.270410     -0.172672
  O       2.624097      0.133631     -0.298188
  C       1.704314     -0.682421      0.260013
  O       2.048153     -1.708776      0.838009
  C       0.339523     -0.219410      0.100574
  C      -0.707213     -0.996403      0.630746
  C      -2.059546     -0.641404      0.530267
  O      -3.030666     -1.367458      1.017830
  C      -2.354224      0.596941     -0.153211
  O      -3.559249      1.056148     -0.316933
  C      -1.276082      1.350089     -0.671984
  O      -1.647143      2.516697     -1.310069
  C       0.045055      0.978894     -0.565778
  H       4.147697     -1.238569     -0.648361
  H       4.567607      0.493897     -0.680153
  H       4.278185     -0.326182      0.876307
  H      -0.463902     -1.921885      1.143980
  H      -2.622146      2.488413     -1.214922
  H       0.824241      1.601313     -0.986753
19
Coordinates from ORCA-job lig_P2_L2m E -684.405705338694
  C       3.982301     -0.270613     -0.173387
  O       2.623951      0.133442     -0.298465
  C       1.704440     -0.681880      0.261017
  O       2.048362     -1.708143      0.839149
  C       0.339618     -0.219228      0.101512
  C      -0.707177     -0.996543      0.631218
  C      -2.059517     -0.641475      0.530456
  O      -3.030863     -1.368460      1.016158
  C      -2.354478      0.596738     -0.153337
  O      -3.559841      1.054517     -0.317721
  C      -1.276326      1.350027     -0.671457
  O      -1.646165      2.516938     -1.309695
  C       0.044939      0.979082     -0.564682
  H       4.147164     -1.239398     -0.647940
  H       4.567180      0.493037     -0.682306
  H       4.278832     -0.325030      0.875463
  H      -0.464130     -1.922252      1.144170
  H      -2.621098      2.490302     -1.216069
  H       0.823836      1.602046     -0.985384
19
Coordinates from ORCA-job lig_P2_L2m E -684.405703938607
  C       3.982332     -0.270586     -0.173781
  O       2.623783      0.133124     -0.299109
  C       1.704524     -0.681652      0.261501
  O       2.048657     -1.707515      0.840295
  C       0.339694     -0.219510      0.101813
  C      -0.707203     -0.997158      0.631009
  C      -2.059548     -0.642250      0.529671
  O      -3.030921     -1.368784      1.015957
  C      -2.354895      0.596411     -0.153578
  O      -3.560527      1.053245     -0.317050
  C      -1.276682      1.349849     -0.670958
  O      -1.644842      2.517323     -1.309168
  C       0.044657      0.978858     -0.564100
  H       4.147111     -1.240121     -0.646792
  H       4.566723      0.492455     -0.684146
  H       4.279082     -0.323297      0.875085
  H      -0.464407     -1.922875      1.144081
  H      -2.619660      2.493078     -1.217507
  H       0.823150      1.602512     -0.984523
19
Coordinates from ORCA-job lig_P2_L2m E -684.405710394532
  C       3.982353     -0.270591     -0.173753
  O       2.623802      0.133086     -0.299340
  C       1.704495     -0.681818      0.261241
  O       2.048750     -1.707432      0.840405
  C       0.339739     -0.219558      0.101732
  C      -0.707208     -0.997066      0.631082
  C      -2.059523     -0.642156      0.529992
  O      -3.030924     -1.368926      1.015870
  C      -2.354972      0.596492     -0.153396
  O      -3.560598      1.052904     -0.317345
  C      -1.276711      1.349851     -0.670958
  O      -1.644801      2.517360     -1.309153
  C       0.044585      0.978825     -0.564184
  H       4.147255     -1.240189     -0.646601
  H       4.566735      0.492464     -0.684104
  H       4.278945     -0.323270      0.875162
  H      -0.464362     -1.922844      1.144040
  H      -2.619580      2.493524     -1.217268
  H       0.823048      1.602451     -0.984723
