19
Coordinates from ORCA-job lig_P2_L2m E -684.405710394532
  C           3.98235287307911     -0.27059143777024     -0.17375264901666
  O           2.62380225476345      0.13308637371238     -0.29933974650342
  C           1.70449533280510     -0.68181830040805      0.26124119399644
  O           2.04875048193340     -1.70743165577807      0.84040495798788
  C           0.33973887467521     -0.21955805288205      0.10173185226477
  C          -0.70720823317748     -0.99706570720301      0.63108235668345
  C          -2.05952260726384     -0.64215618456290      0.52999215097152
  O          -3.03092365125485     -1.36892616331301      1.01586952834463
  C          -2.35497204046728      0.59649237142357     -0.15339582151047
  O          -3.56059844457164      1.05290374104652     -0.31734463826551
  C          -1.27671122798887      1.34985085460216     -0.67095832978846
  O          -1.64480090859612      2.51735999262325     -1.30915295497230
  C           0.04458517979843      0.97882472616500     -0.56418449210221
  H           4.14725463003853     -1.24018877853935     -0.64660074790472
  H           4.56673460517917      0.49246438466779     -0.68410388908077
  H           4.27894528719155     -0.32326994577596      0.87516234559937
  H          -0.46436249924445     -1.92284439702137      1.14403955722171
  H          -2.61958031120362      2.49352414940755     -1.21726832458959
  H           0.82304811430420      1.60245064960581     -0.98472269933567
