32
Coordinates from ORCA-job cu_P2_cplx E -2630.058427073794
  Cu     -4.556402      0.340239     -0.872353
  C       3.957737     -0.915137      0.807380
  O       2.705244     -0.258713      0.620845
  C       1.667963     -1.027519      0.248723
  O       1.797855     -2.232535      0.073428
  C       0.421418     -0.289224      0.086393
  C      -0.717142     -0.989608     -0.301699
  C      -1.932931     -0.330816     -0.506287
  O      -2.981879     -0.909281     -0.995509
  C      -2.006396      1.074256     -0.191710
  O      -3.143165      1.688983     -0.196404
  C      -0.819967      1.766056      0.164996
  O      -0.911636      3.109031      0.403275
  C       0.369932      1.098191      0.310036
  H       3.887552     -1.625468      1.632768
  H       4.668848     -0.125911      1.030268
  H       4.237109     -1.454476     -0.099154
  H      -0.643670     -2.050533     -0.490357
  H      -1.847106      3.351767      0.265178
  H       1.255039      1.636272      0.606019
  O      -5.791843     -1.481708     -0.801543
  H      -5.103259     -2.139492     -0.651348
  H      -6.268960     -1.369656      0.030460
  O      -5.913036      1.954535     -1.357853
  H      -6.212826      1.695746     -2.238804
  H      -5.354951      2.732783     -1.464003
  O      -5.636168      0.577906      1.167069
  H      -5.006165      1.042759      1.727514
  H      -6.303138      1.225765      0.903334
  O      -4.952911     -0.006852     -3.143266
  H      -5.545610     -0.765055     -3.059221
  H      -4.114766     -0.347241     -3.472094
32
Coordinates from ORCA-job cu_P2_cplx E -2630.062099326517
  Cu     -4.558117      0.340006     -0.876017
  C       3.961045     -0.922529      0.797388
  O       2.711368     -0.255830      0.625079
  C       1.674238     -1.021039      0.253023
  O       1.803477     -2.224218      0.076338
  C       0.426582     -0.280712      0.090883
  C      -0.716632     -0.981490     -0.300003
  C      -1.928993     -0.323410     -0.505247
  O      -2.999475     -0.909136     -0.984756
  C      -2.007578      1.067773     -0.189144
  O      -3.155875      1.686108     -0.216846
  C      -0.831840      1.758174      0.172187
  O      -0.930911      3.102271      0.413838
  C       0.368244      1.101864      0.318288
  H       3.895851     -1.645972      1.611905
  H       4.677941     -0.141306      1.036069
  H       4.246693     -1.441312     -0.118701
  H      -0.648910     -2.047017     -0.488292
  H      -1.861252      3.335735      0.276284
  H       1.250785      1.650108      0.620856
  O      -5.797372     -1.468143     -0.803239
  H      -5.113273     -2.131522     -0.651081
  H      -6.263605     -1.361933      0.034701
  O      -5.908717      1.945045     -1.360159
  H      -6.194443      1.700345     -2.249239
  H      -5.351384      2.726067     -1.459896
  O      -5.639668      0.586138      1.170182
  H      -5.007302      1.052290      1.727830
  H      -6.295098      1.243824      0.911961
  O      -4.951184     -0.018567     -3.152167
  H      -5.536442     -0.780020     -3.069670
  H      -4.113384     -0.366526     -3.476274
32
Coordinates from ORCA-job cu_P2_cplx E -2630.066051023031
  Cu     -4.550207      0.338857     -0.880305
  C       3.958175     -0.927617      0.788738
  O       2.710961     -0.253380      0.631090
  C       1.676105     -1.016864      0.257703
  O       1.801253     -2.217491      0.077997
  C       0.428128     -0.271605      0.095449
  C      -0.719899     -0.973366     -0.303089
  C      -1.922489     -0.313482     -0.505607
  O      -3.032895     -0.907077     -0.962404
  C      -2.008649      1.053784     -0.194036
  O      -3.178247      1.674012     -0.261071
  C      -0.854112      1.744165      0.175340
  O      -0.963015      3.091438      0.423848
  C       0.360867      1.104176      0.326424
  H       3.901780     -1.666551      1.589336
  H       4.679305     -0.155594      1.050340
  H       4.259273     -1.415384     -0.138780
  H      -0.661932     -2.040706     -0.495868
  H      -1.892063      3.315185      0.281472
  H       1.234179      1.667793      0.635012
  O      -5.798719     -1.432033     -0.811224
  H      -5.127567     -2.109944     -0.655375
  H      -6.251986     -1.336764      0.036332
  O      -5.887833      1.918476     -1.349385
  H      -6.161739      1.699486     -2.250122
  H      -5.333559      2.704374     -1.443091
  O      -5.631112      0.595402      1.188335
  H      -4.991631      1.063064      1.738398
  H      -6.272549      1.271799      0.943562
  O      -4.941221     -0.033169     -3.170631
  H      -5.518879     -0.801266     -3.095057
  H      -4.104952     -0.394654     -3.487252
32
Coordinates from ORCA-job cu_P2_cplx E -2630.067574278417
  Cu     -4.540071      0.336837     -0.881661
  C       3.951941     -0.922804      0.787602
  O       2.703046     -0.252629      0.631677
  C       1.671060     -1.018334      0.256034
  O       1.795905     -2.217852      0.074582
  C       0.421512     -0.272692      0.094757
  C      -0.723918     -0.978143     -0.308083
  C      -1.923530     -0.315933     -0.506475
  O      -3.050432     -0.910404     -0.943311
  C      -2.012499      1.048529     -0.201111
  O      -3.187468      1.666657     -0.293032
  C      -0.865532      1.741392      0.176064
  O      -0.974768      3.089325      0.426051
  C       0.351328      1.102264      0.330500
  H       3.897327     -1.670558      1.579957
  H       4.669336     -0.151776      1.063189
  H       4.263278     -1.394377     -0.144980
  H      -0.666635     -2.044498     -0.503988
  H      -1.903340      3.311824      0.274890
  H       1.220734      1.669905      0.641391
  O      -5.798333     -1.405771     -0.815319
  H      -5.137438     -2.094703     -0.662075
  H      -6.246279     -1.314508      0.035993
  O      -5.871265      1.898056     -1.339844
  H      -6.137806      1.696885     -2.247239
  H      -5.322151      2.689309     -1.420942
  O      -5.620289      0.599839      1.206761
  H      -4.973342      1.063718      1.751482
  H      -6.253870      1.286439      0.969488
  O      -4.931503     -0.041841     -3.185061
  H      -5.505519     -0.813165     -3.113398
  H      -4.094708     -0.405925     -3.497819
32
Coordinates from ORCA-job cu_P2_cplx E -2630.069544936055
  Cu     -4.520680      0.332601     -0.881922
  C       3.940550     -0.909902      0.788392
  O       2.687489     -0.250069      0.630213
  C       1.658585     -1.022231      0.258300
  O       1.786617     -2.220809      0.075957
  C       0.405785     -0.279416      0.094924
  C      -0.732641     -0.992966     -0.309820
  C      -1.930965     -0.327674     -0.504028
  O      -3.071005     -0.918911     -0.911697
  C      -2.020628      1.043814     -0.216622
  O      -3.195665      1.655014     -0.340563
  C      -0.878820      1.742311      0.169902
  O      -0.983867      3.090809      0.412953
  C       0.334189      1.096844      0.331924
  H       3.887240     -1.664247      1.574486
  H       4.650546     -0.136069      1.074324
  H       4.260153     -1.369341     -0.147801
  H      -0.672437     -2.057960     -0.503123
  H      -1.910733      3.316400      0.244961
  H       1.200874      1.665846      0.643180
  O      -5.796910     -1.362927     -0.826652
  H      -5.154116     -2.070733     -0.682153
  H      -6.243041     -1.275365      0.026733
  O      -5.845830      1.864024     -1.319085
  H      -6.106192      1.689648     -2.234270
  H      -5.308414      2.665469     -1.374692
  O      -5.600518      0.598155      1.244549
  H      -4.940023      1.051554      1.781525
  H      -6.224956      1.297147      1.017365
  O      -4.912744     -0.046635     -3.212557
  H      -5.483804     -0.821164     -3.148027
  H      -4.073271     -0.408153     -3.520596
32
Coordinates from ORCA-job cu_P2_cplx E -2630.070948064287
  Cu     -4.502898      0.326927     -0.880365
  C       3.927093     -0.898622      0.807241
  O       2.674261     -0.244678      0.626798
  C       1.649749     -1.021139      0.249527
  O       1.779982     -2.222421      0.084366
  C       0.393212     -0.284514      0.083616
  C      -0.740115     -1.006138     -0.314328
  C      -1.941286     -0.341567     -0.503521
  O      -3.082799     -0.930121     -0.883288
  C      -2.027588      1.042330     -0.241761
  O      -3.196729      1.645766     -0.386953
  C      -0.885410      1.746473      0.146326
  O      -0.984426      3.095478      0.375523
  C       0.321816      1.093564      0.313973
  H       3.859913     -1.654617      1.590703
  H       4.628368     -0.121990      1.104997
  H       4.260249     -1.357703     -0.124687
  H      -0.675045     -2.071262     -0.497582
  H      -1.908465      3.328249      0.195479
  H       1.189594      1.661562      0.620514
  O      -5.797465     -1.323530     -0.838813
  H      -5.173214     -2.050832     -0.711876
  H      -6.242395     -1.239342      0.015968
  O      -5.829995      1.829668     -1.289283
  H      -6.086592      1.684226     -2.210837
  H      -5.308100      2.642811     -1.309126
  O      -5.576237      0.583234      1.293672
  H      -4.899567      1.021667      1.822258
  H      -6.194221      1.291535      1.077159
  O      -4.900754     -0.040446     -3.243542
  H      -5.468963     -0.817620     -3.185345
  H      -4.057204     -0.391885     -3.550734
32
Coordinates from ORCA-job cu_P2_cplx E -2630.071737669732
  Cu     -4.491910      0.321476     -0.881614
  C       3.926640     -0.886450      0.792993
  O       2.667274     -0.239755      0.629118
  C       1.635197     -1.025393      0.291695
  O       1.775627     -2.223866      0.108367
  C       0.380310     -0.292385      0.106289
  C      -0.750319     -1.017699     -0.288353
  C      -1.953979     -0.355997     -0.484046
  O      -3.088510     -0.945221     -0.847870
  C      -2.033099      1.040741     -0.256363
  O      -3.192511      1.641579     -0.424801
  C      -0.889047      1.747346      0.133042
  O      -0.981107      3.098547      0.339736
  C       0.311292      1.088537      0.317032
  H       3.874552     -1.634240      1.585464
  H       4.629246     -0.102584      1.065863
  H       4.238369     -1.359185     -0.139617
  H      -0.682311     -2.085330     -0.452668
  H      -1.899935      3.341653      0.146506
  H       1.181009      1.654357      0.621069
  O      -5.807109     -1.290241     -0.858412
  H      -5.202557     -2.036674     -0.750491
  H      -6.253490     -1.208401     -0.004070
  O      -5.823340      1.802766     -1.276413
  H      -6.066593      1.685268     -2.205452
  H      -5.318018      2.625961     -1.251192
  O      -5.570374      0.567374      1.332590
  H      -4.880038      0.988036      1.857207
  H      -6.178981      1.284604      1.119907
  O      -4.878794     -0.030519     -3.279737
  H      -5.444219     -0.809902     -3.228797
  H      -4.028502     -0.369342     -3.580903
32
Coordinates from ORCA-job cu_P2_cplx E -2630.072590206844
  Cu     -4.488616      0.314327     -0.878526
  C       3.914154     -0.888299      0.852351
  O       2.668012     -0.232550      0.626740
  C       1.644418     -1.013273      0.252375
  O       1.777312     -2.221188      0.125240
  C       0.387534     -0.286994      0.068452
  C      -0.747840     -1.016000     -0.303430
  C      -1.959631     -0.363202     -0.490142
  O      -3.086477     -0.960270     -0.827970
  C      -2.030388      1.044536     -0.296616
  O      -3.183617      1.643417     -0.468992
  C      -0.879905      1.753874      0.076931
  O      -0.965954      3.107512      0.261026
  C       0.319428      1.095588      0.261109
  H       3.816223     -1.634241      1.642235
  H       4.607203     -0.107029      1.153896
  H       4.261419     -1.371084     -0.062350
  H      -0.677341     -2.086665     -0.447793
  H      -1.882240      3.360156      0.071048
  H       1.194432      1.661056      0.550863
  O      -5.820765     -1.266081     -0.865225
  H      -5.234754     -2.031155     -0.794822
  H      -6.254745     -1.194473     -0.003720
  O      -5.841853      1.774026     -1.236743
  H      -6.081058      1.689240     -2.170006
  H      -5.360198      2.608216     -1.163640
  O      -5.542272      0.528550      1.394583
  H      -4.831442      0.927927      1.907548
  H      -6.144227      1.254840      1.196225
  O      -4.890072     -0.004142     -3.311831
  H      -5.447487     -0.788951     -3.264179
  H      -4.034480     -0.322603     -3.618558
32
Coordinates from ORCA-job cu_P2_cplx E -2630.073535152786
  Cu     -4.494915      0.310960     -0.879575
  C       3.920137     -0.891031      0.854724
  O       2.675477     -0.230972      0.629649
  C       1.647061     -1.012283      0.270932
  O       1.778448     -2.221164      0.148496
  C       0.393860     -0.284629      0.077520
  C      -0.747179     -1.011961     -0.284251
  C      -1.960073     -0.363693     -0.475725
  O      -3.086200     -0.970684     -0.806570
  C      -2.025308      1.045409     -0.306893
  O      -3.178523      1.649325     -0.488506
  C      -0.873244      1.753546      0.057559
  O      -0.955823      3.111128      0.221370
  C       0.327639      1.099981      0.250550
  H       3.824132     -1.628061      1.653091
  H       4.617954     -0.109039      1.143591
  H       4.260706     -1.386345     -0.055626
  H      -0.680529     -2.085933     -0.411534
  H      -1.870519      3.366597      0.032886
  H       1.204297      1.667681      0.532813
  O      -5.839147     -1.255832     -0.877038
  H      -5.266417     -2.032628     -0.829392
  H      -6.264554     -1.194856     -0.010671
  O      -5.863770      1.763479     -1.229894
  H      -6.090767      1.697758     -2.167385
  H      -5.399653      2.604292     -1.127340
  O      -5.544459      0.507241      1.419075
  H      -4.823647      0.892755      1.928595
  H      -6.135478      1.243295      1.225671
  O      -4.884909      0.013117     -3.333659
  H      -5.435380     -0.776454     -3.290024
  H      -4.024448     -0.295933     -3.636361
32
Coordinates from ORCA-job cu_P2_cplx E -2630.074766179723
  Cu     -4.505190      0.304173     -0.881342
  C       3.926368     -0.893565      0.862192
  O       2.684147     -0.229336      0.633847
  C       1.648384     -1.013791      0.307781
  O       1.772601     -2.224716      0.205085
  C       0.402308     -0.281294      0.094165
  C      -0.748750     -1.007838     -0.242370
  C      -1.959857     -0.363861     -0.444548
  O      -3.093356     -0.989345     -0.753092
  C      -2.015330      1.044032     -0.331684
  O      -3.170282      1.655318     -0.538840
  C      -0.862125      1.752668      0.009816
  O      -0.936194      3.118283      0.126198
  C       0.341768      1.108550      0.222587
  H       3.836757     -1.608225      1.681260
  H       4.632803     -0.109141      1.123763
  H       4.257669     -1.413864     -0.037391
  H      -0.693633     -2.087438     -0.331214
  H      -1.850259      3.372944     -0.059722
  H       1.220384      1.683674      0.485363
  O      -5.872662     -1.223567     -0.906482
  H      -5.335265     -2.026842     -0.906784
  H      -6.278384     -1.189697     -0.028913
  O      -5.905459      1.733612     -1.206770
  H      -6.108693      1.714714     -2.151530
  H      -5.484736      2.587572     -1.043927
  O      -5.540609      0.454304      1.478101
  H      -4.795974      0.809619      1.975360
  H      -6.102513      1.216170      1.299397
  O      -4.865242      0.058950     -3.382260
  H      -5.398925     -0.742381     -3.349184
  H      -3.994981     -0.234621     -3.672784
32
Coordinates from ORCA-job cu_P2_cplx E -2630.075284725420
  Cu     -4.509628      0.299373     -0.881268
  C       3.926673     -0.890195      0.866571
  O       2.684721     -0.227929      0.632396
  C       1.643855     -1.016565      0.334953
  O       1.761154     -2.229732      0.261159
  C       0.400498     -0.282231      0.107768
  C      -0.755774     -1.011817     -0.201967
  C      -1.964580     -0.367814     -0.415391
  O      -3.103521     -1.001879     -0.700279
  C      -2.011593      1.041679     -0.353464
  O      -3.163073      1.654280     -0.584864
  C      -0.855214      1.753765     -0.033295
  O      -0.920502      3.123609      0.040009
  C       0.347173      1.112005      0.195677
  H       3.842799     -1.583603      1.704307
  H       4.638182     -0.102204      1.102923
  H       4.250000     -1.432709     -0.022766
  H      -0.708797     -2.094015     -0.257217
  H      -1.835563      3.375774     -0.145270
  H       1.228489      1.691616      0.438181
  O      -5.895088     -1.190184     -0.932423
  H      -5.393139     -2.014813     -0.976709
  H      -6.284473     -1.180677     -0.046383
  O      -5.933311      1.703986     -1.184044
  H      -6.117846      1.726705     -2.132541
  H      -5.553365      2.565650     -0.969546
  O      -5.532174      0.406581      1.531038
  H      -4.765310      0.731772      2.014982
  H      -6.064494      1.192391      1.365236
  O      -4.837655      0.104357     -3.422506
  H      -5.355636     -0.707596     -3.399900
  H      -3.958037     -0.174514     -3.699289
32
Coordinates from ORCA-job cu_P2_cplx E -2630.075552373618
  Cu     -4.512438      0.297806     -0.879707
  C       3.925552     -0.885962      0.862995
  O       2.682498     -0.227626      0.627122
  C       1.637991     -1.019802      0.352796
  O       1.749585     -2.234209      0.305232
  C       0.394729     -0.284599      0.118613
  C      -0.763169     -1.018207     -0.170887
  C      -1.968776     -0.370863     -0.394354
  O      -3.112387     -1.005620     -0.665913
  C      -2.011823      1.039325     -0.362163
  O      -3.160536      1.652290     -0.606824
  C      -0.851814      1.755266     -0.059683
  O      -0.912592      3.126389     -0.014197
  C       0.347922      1.112029      0.178479
  H       3.849690     -1.560458      1.716821
  H       4.641571     -0.095206      1.075489
  H       4.239557     -1.446458     -0.018598
  H      -0.721606     -2.100950     -0.206321
  H      -1.830476      3.372358     -0.197488
  H       1.231421      1.694243      0.405177
  O      -5.908487     -1.172640     -0.948614
  H      -5.430247     -2.009683     -1.019108
  H      -6.289985     -1.178920     -0.059033
  O      -5.950238      1.688496     -1.171372
  H      -6.122063      1.734253     -2.121591
  H      -5.596111      2.554475     -0.930770
  O      -5.526633      0.375778      1.557761
  H      -4.744928      0.678630      2.032694
  H      -6.035109      1.179142      1.400979
  O      -4.809279      0.138321     -3.440196
  H      -5.314584     -0.681907     -3.427014
  H      -3.922467     -0.130628     -3.704246
32
Coordinates from ORCA-job cu_P2_cplx E -2630.075665646041
  Cu     -4.521375      0.298023     -0.867347
  C       3.914187     -0.870581      0.854745
  O       2.669160     -0.226444      0.602930
  C       1.615558     -1.028161      0.396096
  O       1.711715     -2.243258      0.437410
  C       0.370333     -0.293894      0.136659
  C      -0.789144     -1.041478     -0.092264
  C      -1.983632     -0.379508     -0.345146
  O      -3.141514     -1.001954     -0.585876
  C      -2.020389      1.031006     -0.375262
  O      -3.162212      1.645141     -0.636708
  C      -0.845748      1.758722     -0.139724
  O      -0.900522      3.128567     -0.167520
  C       0.344289      1.105260      0.115979
  H       3.860249     -1.473462      1.763395
  H       4.644155     -0.073679      0.985103
  H       4.199677     -1.496492      0.007099
  H      -0.762068     -2.123416     -0.078505
  H      -1.830033      3.348601     -0.338705
  H       1.235396      1.692411      0.293354
  O      -5.945551     -1.143414     -0.985249
  H      -5.533758     -2.006830     -1.131647
  H      -6.308144     -1.196860     -0.089192
  O      -5.995525      1.661252     -1.136629
  H      -6.131409      1.754055     -2.090436
  H      -5.705146      2.537967     -0.848887
  O      -5.499329      0.290110      1.606370
  H      -4.672946      0.516972      2.050630
  H      -5.928695      1.145666      1.479103
  O      -4.710294      0.247115     -3.447371
  H      -5.172073     -0.600063     -3.468725
  H      -3.800442      0.013691     -3.667602
32
Coordinates from ORCA-job cu_P2_cplx E -2630.075571947079
  Cu     -4.516648      0.299764     -0.868379
  C       3.914935     -0.884150      0.858798
  O       2.672831     -0.228553      0.617329
  C       1.625915     -1.017407      0.361893
  O       1.733402     -2.225838      0.343778
  C       0.380510     -0.285209      0.120707
  C      -0.778041     -1.024616     -0.138756
  C      -1.978493     -0.371646     -0.375894
  O      -3.129711     -0.997038     -0.631382
  C      -2.021374      1.036994     -0.360445
  O      -3.168627      1.650261     -0.604300
  C      -0.854156      1.756550     -0.094507
  O      -0.917713      3.123184     -0.077883
  C       0.341791      1.108189      0.147576
  H       3.844394     -1.531949      1.725266
  H       4.635996     -0.098301      1.045119
  H       4.219188     -1.463967     -0.007808
  H      -0.741431     -2.105221     -0.155659
  H      -1.839532      3.357312     -0.263289
  H       1.228944      1.690280      0.351485
  O      -5.926298     -1.167822     -0.953650
  H      -5.478422     -2.007863     -1.056847
  H      -6.301754     -1.193359     -0.064825
  O      -5.969713      1.680076     -1.163370
  H      -6.123447      1.731748     -2.111896
  H      -5.640291      2.546636     -0.918366
  O      -5.506062      0.341974      1.564253
  H      -4.705874      0.609177      2.016802
  H      -5.977095      1.160112      1.420927
  O      -4.746716      0.188427     -3.415419
  H      -5.225717     -0.646466     -3.423560
  H      -3.846021     -0.056216     -3.651623
32
Coordinates from ORCA-job cu_P2_cplx E -2630.075522251874
  Cu     -4.514541      0.295683     -0.870382
  C       3.914151     -0.883717      0.865790
  O       2.680463     -0.217539      0.593822
  C       1.627610     -1.012484      0.356557
  O       1.733077     -2.230836      0.357315
  C       0.385845     -0.282079      0.107038
  C      -0.775903     -1.016191     -0.166976
  C      -1.982473     -0.373520     -0.394966
  O      -3.127309     -1.002470     -0.655033
  C      -2.024519      1.037117     -0.362389
  O      -3.174798      1.648994     -0.595518
  C      -0.861475      1.751784     -0.084038
  O      -0.928297      3.120063     -0.055496
  C       0.340124      1.110308      0.148339
  H       3.828960     -1.505218      1.758938
  H       4.639946     -0.091647      1.027592
  H       4.217098     -1.505020      0.020350
  H      -0.733974     -2.100179     -0.188582
  H      -1.840986      3.369712     -0.254848
  H       1.227360      1.690025      0.363361
  O      -5.927358     -1.173984     -0.953168
  H      -5.462961     -2.017949     -1.065268
  H      -6.295610     -1.196473     -0.056629
  O      -5.958980      1.684000     -1.159987
  H      -6.098126      1.741450     -2.124862
  H      -5.614860      2.560578     -0.883775
  O      -5.503547      0.350412      1.555705
  H      -4.696433      0.608895      2.019820
  H      -5.983285      1.175585      1.418390
  O      -4.766904      0.169501     -3.409034
  H      -5.251267     -0.663273     -3.419237
  H      -3.866258     -0.066463     -3.656753
32
Coordinates from ORCA-job cu_P2_cplx E -2630.075173065266
  Cu     -4.521184      0.299144     -0.866129
  C       3.919876     -0.872827      0.841267
  O       2.679656     -0.219218      0.576096
  C       1.618391     -1.024707      0.386880
  O       1.713345     -2.248323      0.429116
  C       0.377043     -0.291370      0.129959
  C      -0.786940     -1.029863     -0.124828
  C      -1.987632     -0.378166     -0.367111
  O      -3.137415     -1.003866     -0.622801
  C      -2.024691      1.033198     -0.358115
  O      -3.171871      1.648354     -0.598022
  C      -0.856071      1.752919     -0.097030
  O      -0.916460      3.123259     -0.089324
  C       0.342220      1.107720      0.140077
  H       3.859214     -1.459929      1.768106
  H       4.654439     -0.070211      0.951664
  H       4.198980     -1.527868      0.007660
  H      -0.752407     -2.114399     -0.130356
  H      -1.837038      3.360319     -0.271940
  H       1.233034      1.690803      0.338280
  O      -5.945125     -1.160230     -0.972981
  H      -5.503827     -2.018318     -1.109994
  H      -6.306789     -1.200515     -0.073575
  O      -5.974381      1.682139     -1.159538
  H      -6.131937      1.727922     -2.100984
  H      -5.644422      2.539248     -0.922593
  O      -5.506649      0.324249      1.568092
  H      -4.681313      0.548912      2.030981
  H      -5.952188      1.183404      1.440560
  O      -4.730750      0.213760     -3.416419
  H      -5.201754     -0.629625     -3.441694
  H      -3.820584     -0.010850     -3.649227
32
Coordinates from ORCA-job cu_P2_cplx E -2630.075866409382
  Cu     -4.521840      0.296333     -0.866017
  C       3.919384     -0.878900      0.829303
  O       2.671088     -0.231067      0.610798
  C       1.614903     -1.025051      0.394131
  O       1.713773     -2.236823      0.400006
  C       0.369933     -0.290548      0.152650
  C      -0.790913     -1.035259     -0.089200
  C      -1.986657     -0.377722     -0.344070
  O      -3.138436     -1.003275     -0.597155
  C      -2.026020      1.034922     -0.355144
  O      -3.172455      1.649599     -0.608432
  C      -0.854116      1.762284     -0.106472
  O      -0.910430      3.135140     -0.122195
  C       0.339716      1.111849      0.145474
  H       3.872598     -1.512858      1.711958
  H       4.649533     -0.086436      0.982299
  H       4.197546     -1.472621     -0.038372
  H      -0.758084     -2.117351     -0.090338
  H      -1.837141      3.359718     -0.299106
  H       1.231552      1.699533      0.328216
  O      -5.945413     -1.159374     -0.971851
  H      -5.518100     -2.011089     -1.091279
  H      -6.318846     -1.195619     -0.083881
  O      -5.984060      1.671154     -1.162524
  H      -6.114290      1.739150     -2.118456
  H      -5.673077      2.544430     -0.889144
  O      -5.509471      0.315720      1.568858
  H      -4.697071      0.559824      2.017131
  H      -5.957980      1.153955      1.432844
  O      -4.703462      0.216499     -3.419205
  H      -5.166884     -0.630620     -3.446313
  H      -3.790511     -0.010434     -3.638434
32
Coordinates from ORCA-job cu_P2_cplx E -2630.076078070066
  Cu     -4.519115      0.295894     -0.865288
  C       3.906377     -0.886524      0.877000
  O       2.670946     -0.224554      0.607108
  C       1.623259     -1.014359      0.357430
  O       1.727927     -2.228744      0.358770
  C       0.382019     -0.280341      0.102215
  C      -0.779756     -1.019308     -0.155001
  C      -1.983432     -0.371580     -0.387380
  O      -3.135234     -1.000699     -0.635194
  C      -2.023571      1.038583     -0.372090
  O      -3.172900      1.650430     -0.605091
  C      -0.854990      1.760071     -0.114458
  O      -0.918098      3.127454     -0.095894
  C       0.343165      1.114959      0.124331
  H       3.821593     -1.516789      1.760763
  H       4.629851     -0.098018      1.052511
  H       4.216060     -1.492185      0.024923
  H      -0.742492     -2.102188     -0.165799
  H      -1.838796      3.363736     -0.280526
  H       1.231302      1.696733      0.327538
  O      -5.937894     -1.167103     -0.953926
  H      -5.490442     -2.018574     -1.088629
  H      -6.293966     -1.203135     -0.050974
  O      -5.978613      1.675894     -1.151423
  H      -6.119403      1.733194     -2.107751
  H      -5.652423      2.549536     -0.887918
  O      -5.488789      0.331177      1.567709
  H      -4.671820      0.579375      2.017699
  H      -5.953736      1.163817      1.439479
  O      -4.742084      0.195642     -3.402687
  H      -5.212698     -0.644370     -3.422821
  H      -3.837480     -0.032958     -3.638549
32
Coordinates from ORCA-job cu_P2_cplx E -2630.076098918340
  Cu     -4.520749      0.295629     -0.867266
  C       3.918158     -0.877288      0.833103
  O       2.677890     -0.219802      0.579676
  C       1.617625     -1.020228      0.379538
  O       1.714112     -2.241357      0.407170
  C       0.375389     -0.287067      0.130979
  C      -0.787480     -1.025169     -0.124536
  C      -1.988302     -0.375563     -0.367960
  O      -3.136792     -1.003592     -0.623679
  C      -2.028564      1.034549     -0.353773
  O      -3.177722      1.649149     -0.594106
  C      -0.861710      1.753335     -0.089056
  O      -0.924788      3.122043     -0.074032
  C       0.336961      1.108795      0.150262
  H       3.856996     -1.481371      1.744699
  H       4.651162     -0.080055      0.960717
  H       4.198808     -1.513818     -0.011084
  H      -0.750316     -2.108207     -0.135095
  H      -1.844216      3.359998     -0.263295
  H       1.225705      1.690767      0.352568
  O      -5.943951     -1.166421     -0.964146
  H      -5.500373     -2.011746     -1.077724
  H      -6.315154     -1.194741     -0.073464
  O      -5.973480      1.679095     -1.168096
  H      -6.105932      1.733283     -2.125895
  H      -5.644102      2.548817     -0.903067
  O      -5.503121      0.332461      1.551921
  H      -4.687006      0.573971      2.006749
  H      -5.961297      1.172057      1.420642
  O      -4.718640      0.197686     -3.402970
  H      -5.186293     -0.645346     -3.432335
  H      -3.808048     -0.024799     -3.630368
32
Coordinates from ORCA-job cu_P2_cplx E -2630.076212585301
  Cu     -4.522846      0.294991     -0.863757
  C       3.916693     -0.876445      0.832335
  O       2.670729     -0.225456      0.599710
  C       1.614123     -1.022422      0.386667
  O       1.714815     -2.237292      0.396050
  C       0.369891     -0.290585      0.143610
  C      -0.793188     -1.031460     -0.103352
  C      -1.992083     -0.379051     -0.353187
  O      -3.142299     -1.006531     -0.603600
  C      -2.029857      1.033535     -0.355044
  O      -3.177125      1.649335     -0.601678
  C      -0.860105      1.756108     -0.101369
  O      -0.918514      3.129054     -0.109612
  C       0.335874      1.108764      0.146481
  H       3.862646     -1.504054      1.721632
  H       4.644735     -0.081208      0.982228
  H       4.199677     -1.482179     -0.027950
  H      -0.758003     -2.114765     -0.106300
  H      -1.839760      3.363024     -0.297765
  H       1.227639      1.693955      0.335402
  O      -5.953817     -1.157727     -0.968040
  H      -5.522130     -2.013863     -1.099799
  H      -6.317227     -1.194689     -0.072908
  O      -5.980779      1.672977     -1.164687
  H      -6.109656      1.731703     -2.120216
  H      -5.661316      2.542162     -0.897017
  O      -5.500668      0.322847      1.562415
  H      -4.678565      0.555787      2.011279
  H      -5.948323      1.169770      1.434393
  O      -4.700938      0.210782     -3.404657
  H      -5.160009     -0.638421     -3.441041
  H      -3.784843     -0.003583     -3.624143
32
Coordinates from ORCA-job cu_P2_cplx E -2630.076277416580
  Cu     -4.523718      0.294574     -0.862206
  C       3.909420     -0.883054      0.853884
  O       2.669900     -0.225476      0.598498
  C       1.615808     -1.019196      0.375039
  O       1.715079     -2.235377      0.391344
  C       0.374026     -0.284191      0.121664
  C      -0.788965     -1.025049     -0.123941
  C      -1.989548     -0.374140     -0.367111
  O      -3.141592     -1.002777     -0.612622
  C      -2.028046      1.036976     -0.365652
  O      -3.176372      1.650449     -0.603460
  C      -0.856995      1.760578     -0.117345
  O      -0.917071      3.130143     -0.114807
  C       0.340071      1.114587      0.124777
  H       3.840161     -1.503251      1.748945
  H       4.638545     -0.090644      1.006730
  H       4.202303     -1.498766      0.001664
  H      -0.754340     -2.108196     -0.125490
  H      -1.840344      3.361056     -0.295393
  H       1.230826      1.698862      0.315602
  O      -5.950760     -1.161666     -0.962326
  H      -5.516918     -2.015369     -1.101535
  H      -6.307199     -1.202497     -0.062079
  O      -5.988214      1.671630     -1.155348
  H      -6.116829      1.731706     -2.111218
  H      -5.672069      2.543644     -0.887236
  O      -5.487949      0.318330      1.565692
  H      -4.667683      0.559286      2.007060
  H      -5.943716      1.154444      1.441408
  O      -4.706839      0.213433     -3.396521
  H      -5.163047     -0.635736     -3.433636
  H      -3.793153      0.000749     -3.618303
32
Coordinates from ORCA-job cu_P2_cplx E -2630.076333062897
  Cu     -4.525020      0.293094     -0.862136
  C       3.906063     -0.882965      0.858667
  O       2.667189     -0.224438      0.599998
  C       1.615628     -1.016952      0.367856
  O       1.717546     -2.232243      0.378304
  C       0.373690     -0.282963      0.114826
  C      -0.789555     -1.022773     -0.132344
  C      -1.991442     -0.373930     -0.372939
  O      -3.143471     -1.003402     -0.616887
  C      -2.030347      1.036448     -0.366975
  O      -3.179358      1.649984     -0.601560
  C      -0.860007      1.758560     -0.117296
  O      -0.921874      3.126680     -0.108579
  C       0.337808      1.113765      0.123478
  H       3.832324     -1.509022      1.747776
  H       4.632096     -0.091795      1.021448
  H       4.205344     -1.492496      0.005154
  H      -0.753629     -2.105408     -0.136192
  H      -1.843864      3.359420     -0.292509
  H       1.227628      1.696733      0.317633
  O      -5.953081     -1.163772     -0.957872
  H      -5.517484     -2.012947     -1.090949
  H      -6.310709     -1.200371     -0.059483
  O      -5.988547      1.671593     -1.158008
  H      -6.112180      1.729988     -2.116143
  H      -5.670346      2.544369     -0.888139
  O      -5.481693      0.322000      1.559797
  H      -4.653564      0.553094      2.001174
  H      -5.932435      1.168106      1.441839
  O      -4.704159      0.208152     -3.387315
  H      -5.157497     -0.641067     -3.428752
  H      -3.790282     -0.000380     -3.607791
32
Coordinates from ORCA-job cu_P2_cplx E -2630.076440331469
  Cu     -4.527692      0.291835     -0.859948
  C       3.909592     -0.877360      0.835828
  O       2.666724     -0.222441      0.590795
  C       1.610220     -1.019430      0.378496
  O       1.710527     -2.236338      0.394760
  C       0.367128     -0.287634      0.131588
  C      -0.797542     -1.026504     -0.112733
  C      -1.998498     -0.377812     -0.359537
  O      -3.148872     -1.007232     -0.603618
  C      -2.036010      1.033568     -0.357897
  O      -3.184588      1.649520     -0.596743
  C      -0.866011      1.753631     -0.107607
  O      -0.926875      3.124166     -0.109164
  C       0.331522      1.108722      0.136861
  H       3.848071     -1.500227      1.729285
  H       4.636984     -0.082477      0.985266
  H       4.197279     -1.490852     -0.018861
  H      -0.761332     -2.109356     -0.114285
  H      -1.846373      3.360250     -0.302037
  H       1.222521      1.691549      0.327553
  O      -5.964602     -1.158729     -0.962061
  H      -5.534400     -2.012390     -1.101882
  H      -6.318958     -1.197411     -0.063040
  O      -5.987813      1.671059     -1.165839
  H      -6.100718      1.728585     -2.125856
  H      -5.669468      2.541878     -0.891335
  O      -5.481981      0.323062      1.552664
  H      -4.651500      0.549156      1.989831
  H      -5.929746      1.170658      1.437505
  O      -4.680082      0.210736     -3.378338
  H      -5.123531     -0.643885     -3.434082
  H      -3.759206      0.016766     -3.589490
32
Coordinates from ORCA-job cu_P2_cplx E -2630.076604174314
  Cu     -4.536323      0.288105     -0.853256
  C       3.904260     -0.875818      0.824960
  O       2.660043     -0.222346      0.584638
  C       1.600338     -1.020738      0.387902
  O       1.698112     -2.238122      0.414768
  C       0.357291     -0.289045      0.140097
  C      -0.809935     -1.028782     -0.089798
  C      -2.009894     -0.380193     -0.343918
  O      -3.160954     -1.010639     -0.578726
  C      -2.044581      1.032193     -0.358022
  O      -3.192404      1.649559     -0.597284
  C      -0.871342      1.753319     -0.122414
  O      -0.929833      3.125552     -0.143730
  C       0.325877      1.109055      0.124817
  H       3.849106     -1.492428      1.724649
  H       4.634048     -0.078991      0.962538
  H       4.184222     -1.496246     -0.028347
  H      -0.776103     -2.112410     -0.077623
  H      -1.850236      3.358213     -0.337295
  H       1.220013      1.693446      0.300834
  O      -5.985987     -1.151285     -0.967278
  H      -5.571990     -2.009758     -1.128884
  H      -6.328599     -1.201471     -0.064438
  O      -6.003998      1.663712     -1.165121
  H      -6.096011      1.726379     -2.125863
  H      -5.698575      2.533982     -0.880056
  O      -5.463541      0.307073      1.551682
  H      -4.619633      0.515668      1.970078
  H      -5.899252      1.162267      1.453964
  O      -4.632979      0.230691     -3.354795
  H      -5.046566     -0.637732     -3.442040
  H      -3.699804      0.071853     -3.545961
32
Coordinates from ORCA-job cu_P2_cplx E -2630.076785374460
  Cu     -4.549399      0.282783     -0.844014
  C       3.892910     -0.873650      0.821940
  O       2.647654     -0.222007      0.581904
  C       1.588061     -1.020687      0.389460
  O       1.685724     -2.237728      0.423573
  C       0.345315     -0.289629      0.138193
  C      -0.824707     -1.029016     -0.076905
  C      -2.025225     -0.382337     -0.334581
  O      -3.177815     -1.014151     -0.555685
  C      -2.057057      1.030291     -0.362125
  O      -3.204720      1.649289     -0.595876
  C      -0.880029      1.751116     -0.144486
  O      -0.937635      3.122954     -0.181739
  C       0.317330      1.108237      0.103973
  H       3.838184     -1.492660      1.718530
  H       4.620585     -0.076614      0.962697
  H       4.174684     -1.490442     -0.032150
  H      -0.792231     -2.111841     -0.052518
  H      -1.858740      3.351781     -0.376827
  H       1.213896      1.692466      0.266167
  O      -6.014204     -1.145253     -0.967046
  H      -5.617256     -2.006263     -1.157724
  H      -6.337578     -1.210573     -0.057743
  O      -6.023641      1.658043     -1.165150
  H      -6.085736      1.726168     -2.128068
  H      -5.730361      2.527382     -0.867368
  O      -5.429314      0.293515      1.542851
  H      -4.567856      0.479327      1.932071
  H      -5.852021      1.156709      1.474462
  O      -4.574627      0.247279     -3.308542
  H      -4.948400     -0.631605     -3.439434
  H      -3.631019      0.132180     -3.471762
32
Coordinates from ORCA-job cu_P2_cplx E -2630.076834931715
  Cu     -4.557276      0.279614     -0.839173
  C       3.883021     -0.876038      0.836014
  O       2.641338     -0.221462      0.581898
  C       1.583637     -1.018095      0.382559
  O       1.682040     -2.234179      0.418539
  C       0.341973     -0.286899      0.125092
  C      -0.829343     -1.026893     -0.081462
  C      -2.031346     -0.382087     -0.336630
  O      -3.185295     -1.015548     -0.547547
  C      -2.062202      1.030518     -0.371801
  O      -3.209834      1.648808     -0.600637
  C      -0.882813      1.752277     -0.165850
  O      -0.940447      3.123054     -0.210304
  C       0.315136      1.110712      0.081510
  H       3.818915     -1.490624      1.735687
  H       4.611015     -0.080231      0.978834
  H       4.171187     -1.498663     -0.013011
  H      -0.798025     -2.110137     -0.047733
  H      -1.862798      3.349010     -0.402565
  H       1.212623      1.695057      0.236950
  O      -6.025069     -1.144621     -0.966061
  H      -5.635326     -2.003966     -1.171369
  H      -6.339858     -1.219925     -0.054299
  O      -6.036716      1.654746     -1.157663
  H      -6.087839      1.730161     -2.120295
  H      -5.751039      2.524724     -0.850866
  O      -5.406898      0.283133      1.546234
  H      -4.534389      0.453629      1.920201
  H      -5.821426      1.152091      1.498061
  O      -4.552709      0.256804     -3.287732
  H      -4.901990     -0.630021     -3.440924
  H      -3.603478      0.170115     -3.439580
32
Coordinates from ORCA-job cu_P2_cplx E -2630.076884546862
  Cu     -4.560867      0.279031     -0.838439
  C       3.879695     -0.875133      0.843874
  O       2.638767     -0.221230      0.584503
  C       1.582899     -1.017904      0.378972
  O       1.682281     -2.233779      0.415281
  C       0.341578     -0.287020      0.118009
  C      -0.829521     -1.027542     -0.087886
  C      -2.032267     -0.382920     -0.339883
  O      -3.186852     -1.016554     -0.548032
  C      -2.063338      1.029624     -0.376608
  O      -3.210914      1.647491     -0.604722
  C      -0.883596      1.751815     -0.172604
  O      -0.941541      3.121532     -0.216651
  C       0.314579      1.110507      0.073650
  H       3.811601     -1.490796      1.741421
  H       4.606094     -0.079942      0.991887
  H       4.173022     -1.495675     -0.004077
  H      -0.798218     -2.110470     -0.053288
  H      -1.864834      3.346392     -0.405253
  H       1.211851      1.694886      0.228932
  O      -6.025269     -1.147069     -0.965747
  H      -5.634255     -2.004296     -1.174096
  H      -6.339596     -1.227072     -0.054127
  O      -6.037265      1.657770     -1.154303
  H      -6.089672      1.738012     -2.116703
  H      -5.750005      2.526458     -0.844753
  O      -5.399532      0.284546      1.549574
  H      -4.524746      0.449898      1.921138
  H      -5.811974      1.155470      1.510171
  O      -4.552158      0.255627     -3.284573
  H      -4.897700     -0.630391     -3.444109
  H      -3.603476      0.173795     -3.435479
32
Coordinates from ORCA-job cu_P2_cplx E -2630.077006697550
  Cu     -4.572371      0.277339     -0.836118
  C       3.870345     -0.872446      0.861738
  O       2.632277     -0.219395      0.587549
  C       1.580050     -1.016710      0.368677
  O       1.682714     -2.231317      0.401180
  C       0.339073     -0.287877      0.102102
  C      -0.830991     -1.029734     -0.104553
  C      -2.036012     -0.386065     -0.346943
  O      -3.191556     -1.020244     -0.548543
  C      -2.068394      1.025848     -0.387083
  O      -3.216016      1.642159     -0.616195
  C      -0.889067      1.749141     -0.185108
  O      -0.948269      3.117145     -0.232121
  C       0.309920      1.108726      0.060133
  H       3.793117     -1.483562      1.761246
  H       4.595610     -0.077585      1.013460
  H       4.172614     -1.496939      0.020175
  H      -0.798686     -2.111623     -0.070051
  H      -1.872951      3.340946     -0.415406
  H       1.206197      1.693519      0.216393
  O      -6.023931     -1.155604     -0.966572
  H      -5.625624     -2.006249     -1.184098
  H      -6.339936     -1.251545     -0.057075
  O      -6.034057      1.669251     -1.145361
  H      -6.093300      1.764535     -2.106267
  H      -5.737312      2.532280     -0.826731
  O      -5.379638      0.294281      1.559756
  H      -4.500220      0.444668      1.927341
  H      -5.787109      1.168909      1.547858
  O      -4.550019      0.246913     -3.277673
  H      -4.880693     -0.639202     -3.458894
  H      -3.600996      0.185501     -3.426736
32
Coordinates from ORCA-job cu_P2_cplx E -2630.077075417544
  Cu     -4.583626      0.275329     -0.833470
  C       3.863785     -0.867910      0.864011
  O       2.625596     -0.217552      0.586886
  C       1.573586     -1.017377      0.368658
  O       1.676168     -2.233166      0.407928
  C       0.332768     -0.290026      0.097561
  C      -0.837469     -1.033517     -0.104701
  C      -2.043461     -0.390250     -0.344182
  O      -3.199556     -1.025058     -0.538322
  C      -2.075593      1.021895     -0.393910
  O      -3.222942      1.637292     -0.627600
  C      -0.896481      1.746239     -0.195333
  O      -0.956176      3.113539     -0.249745
  C       0.303088      1.106834      0.050431
  H       3.785504     -1.477498      1.762916
  H       4.587766     -0.072901      1.016701
  H       4.168759     -1.492180      0.024823
  H      -0.805398     -2.116067     -0.063584
  H      -1.881776      3.336349     -0.429718
  H       1.199283      1.692505      0.204208
  O      -6.029116     -1.158427     -0.971427
  H      -5.629016     -2.005280     -1.202536
  H      -6.346857     -1.271489     -0.065154
  O      -6.032976      1.676525     -1.140379
  H      -6.093253      1.786089     -2.099387
  H      -5.730349      2.533040     -0.810101
  O      -5.360393      0.300788      1.567004
  H      -4.475240      0.432904      1.927833
  H      -5.758323      1.179734      1.581812
  O      -4.532919      0.242379     -3.269317
  H      -4.839764     -0.646809     -3.475861
  H      -3.580849      0.209131     -3.409967
32
Coordinates from ORCA-job cu_P2_cplx E -2630.077129518545
  Cu     -4.594465      0.273451     -0.830467
  C       3.858029     -0.864402      0.861021
  O       2.619406     -0.216027      0.582641
  C       1.566435     -1.017884      0.370034
  O       1.669879     -2.232934      0.408407
  C       0.324726     -0.292464      0.100770
  C      -0.845677     -1.036807     -0.097464
  C      -2.052129     -0.393855     -0.336839
  O      -3.208233     -1.028698     -0.525909
  C      -2.083454      1.017893     -0.396100
  O      -3.230327      1.632544     -0.634933
  C      -0.904565      1.743213     -0.201014
  O      -0.963853      3.111403     -0.267487
  C       0.294919      1.104478      0.048505
  H       3.783233     -1.464152      1.769350
  H       4.584635     -0.066755      1.001006
  H       4.158212     -1.499479      0.026455
  H      -0.812972     -2.118403     -0.054252
  H      -1.889472      3.333708     -0.449065
  H       1.191616      1.691328      0.197786
  O      -6.036023     -1.160792     -0.977584
  H      -5.634447     -2.003625     -1.224179
  H      -6.356067     -1.291971     -0.074587
  O      -6.033699      1.682732     -1.137124
  H      -6.092627      1.804927     -2.094522
  H      -5.726154      2.532179     -0.795150
  O      -5.342941      0.306848      1.570567
  H      -4.453403      0.420346      1.925146
  H      -5.729629      1.189735      1.610347
  O      -4.510468      0.238351     -3.259478
  H      -4.789858     -0.654084     -3.490294
  H      -3.555857      0.234258     -3.389507
32
Coordinates from ORCA-job cu_P2_cplx E -2630.077161229967
  Cu     -4.597669      0.272570     -0.829678
  C       3.856472     -0.864575      0.854241
  O       2.616904     -0.215946      0.581103
  C       1.562511     -1.017853      0.373852
  O       1.664729     -2.233711      0.415121
  C       0.320643     -0.292175      0.105742
  C      -0.850299     -1.036610     -0.089136
  C      -2.056584     -0.394201     -0.331471
  O      -3.212349     -1.029555     -0.518198
  C      -2.086931      1.017578     -0.396036
  O      -3.233612      1.631719     -0.638097
  C      -0.908043      1.743171     -0.202136
  O      -0.966888      3.111982     -0.272295
  C       0.291298      1.104951      0.049523
  H       3.784953     -1.465404      1.761816
  H       4.583515     -0.067100      0.992628
  H       4.153408     -1.498496      0.017865
  H      -0.817894     -2.118967     -0.041703
  H      -1.891939      3.334533     -0.456538
  H       1.188243      1.692099      0.196972
  O      -6.040146     -1.160279     -0.980086
  H      -5.638350     -2.001477     -1.233733
  H      -6.362970     -1.298334     -0.079371
  O      -6.036982      1.681729     -1.137247
  H      -6.094740      1.807495     -2.093617
  H      -5.729341      2.528918     -0.790039
  O      -5.335398      0.309844      1.570646
  H      -4.444098      0.414868      1.922877
  H      -5.716328      1.194144      1.619238
  O      -4.497249      0.236014     -3.257381
  H      -4.759464     -0.660890     -3.496957
  H      -3.540635      0.249020     -3.381828
32
Coordinates from ORCA-job cu_P2_cplx E -2630.077183346302
  Cu     -4.599331      0.272045     -0.829667
  C       3.856029     -0.865243      0.843533
  O       2.614495     -0.216429      0.579235
  C       1.558471     -1.018090      0.379789
  O       1.659494     -2.234409      0.422709
  C       0.316044     -0.291758      0.114991
  C      -0.855600     -1.035815     -0.076225
  C      -2.061077     -0.393687     -0.324271
  O      -3.216680     -1.029118     -0.510146
  C      -2.089855      1.017889     -0.393775
  O      -3.236038      1.631748     -0.639617
  C      -0.910795      1.743381     -0.200484
  O      -0.968677      3.112954     -0.272724
  C       0.287986      1.105514      0.053911
  H       3.790767     -1.467574      1.750964
  H       4.583762     -0.067347      0.978216
  H       4.147227     -1.497907      0.003836
  H      -0.823733     -2.118520     -0.025416
  H      -1.892899      3.335494     -0.461033
  H       1.185396      1.692800      0.199191
  O      -6.044692     -1.159176     -0.982993
  H      -5.642407     -1.998559     -1.243320
  H      -6.372377     -1.303613     -0.085261
  O      -6.042916      1.678606     -1.138706
  H      -6.099371      1.807056     -2.094670
  H      -5.736706      2.524051     -0.786883
  O      -5.328932      0.314056      1.568146
  H      -4.436505      0.409589      1.919967
  H      -5.702228      1.200945      1.623068
  O      -4.482380      0.233148     -3.258027
  H      -4.727099     -0.667914     -3.502277
  H      -3.524602      0.260950     -3.375982
32
Coordinates from ORCA-job cu_P2_cplx E -2630.077206212047
  Cu     -4.599436      0.272103     -0.830211
  C       3.855592     -0.867938      0.836076
  O       2.612737     -0.217600      0.579876
  C       1.555910     -1.017864      0.384007
  O       1.656168     -2.234378      0.426259
  C       0.313159     -0.290312      0.122293
  C      -0.858795     -1.033474     -0.068295
  C      -2.063541     -0.391712     -0.320865
  O      -3.218989     -1.026930     -0.508066
  C      -2.091335      1.019510     -0.391368
  O      -3.237116      1.632877     -0.639351
  C      -0.912170      1.744661     -0.197061
  O      -0.969163      3.114917     -0.268452
  C       0.286063      1.106853      0.059352
  H       3.794449     -1.474543      1.740838
  H       4.583523     -0.070642      0.971143
  H       4.142904     -1.496633     -0.008031
  H      -0.827243     -2.116029     -0.017129
  H      -1.892324      3.337730     -0.461306
  H       1.183680      1.693913      0.204251
  O      -6.044992     -1.160944     -0.984457
  H      -5.638262     -1.996852     -1.247831
  H      -6.379840     -1.310802     -0.090152
  O      -6.049575      1.675345     -1.138876
  H      -6.109335      1.805021     -2.094276
  H      -5.743709      2.520388     -0.785749
  O      -5.323423      0.321955      1.564900
  H      -4.431666      0.409599      1.920424
  H      -5.690559      1.211059      1.623601
  O      -4.475159      0.227034     -3.262343
  H      -4.705384     -0.678245     -3.505683
  H      -3.517399      0.266995     -3.377437
32
Coordinates from ORCA-job cu_P2_cplx E -2630.077231756264
  Cu     -4.599831      0.272458     -0.830606
  C       3.854813     -0.869181      0.832836
  O       2.611129     -0.218282      0.580654
  C       1.554287     -1.017809      0.385685
  O       1.654522     -2.234025      0.427012
  C       0.311408     -0.289747      0.125350
  C      -0.860948     -1.032472     -0.064565
  C      -2.064987     -0.390536     -0.319846
  O      -3.220895     -1.025279     -0.507819
  C      -2.092202      1.020698     -0.390476
  O      -3.237400      1.634157     -0.639717
  C      -0.912739      1.745197     -0.195261
  O      -0.969305      3.114997     -0.264093
  C       0.285110      1.107150      0.061489
  H       3.795664     -1.478501      1.735856
  H       4.582494     -0.072051      0.968664
  H       4.140543     -1.495288     -0.013771
  H      -0.830142     -2.114986     -0.012500
  H      -1.892087      3.337622     -0.458568
  H       1.182810      1.693672      0.206598
  O      -6.044440     -1.162941     -0.986153
  H      -5.633838     -1.996175     -1.251318
  H      -6.384952     -1.317946     -0.095072
  O      -6.054840      1.673418     -1.138104
  H      -6.118830      1.805308     -2.093197
  H      -5.749360      2.518580     -0.784706
  O      -5.317823      0.329824      1.562483
  H      -4.426587      0.409621      1.921695
  H      -5.678872      1.221445      1.624695
  O      -4.471741      0.221429     -3.265766
  H      -4.691352     -0.686255     -3.506746
  H      -3.514839      0.270962     -3.378654
32
Coordinates from ORCA-job cu_P2_cplx E -2630.077226203957
  Cu     -4.600904      0.272934     -0.830025
  C       3.853032     -0.871090      0.834747
  O       2.609725     -0.219102      0.582391
  C       1.552966     -1.017814      0.386140
  O       1.652887     -2.233941      0.428330
  C       0.310535     -0.289168      0.124856
  C      -0.861919     -1.031257     -0.066188
  C      -2.065581     -0.389108     -0.321567
  O      -3.221993     -1.023327     -0.510375
  C      -2.092882      1.022067     -0.390858
  O      -3.237655      1.635811     -0.639309
  C      -0.912891      1.746074     -0.196260
  O      -0.968954      3.115779     -0.266356
  C       0.284726      1.107475      0.060599
  H       3.792739     -1.482083      1.736184
  H       4.580517     -0.074757      0.972721
  H       4.139541     -1.495609     -0.012569
  H      -0.831578     -2.113061     -0.015126
  H      -1.891626      3.338162     -0.461706
  H       1.182742      1.693559      0.205241
  O      -6.042156     -1.166398     -0.988219
  H      -5.627187     -1.996318     -1.255174
  H      -6.386126     -1.327674     -0.099253
  O      -6.060201      1.672270     -1.134245
  H      -6.130002      1.806716     -2.088691
  H      -5.755275      2.518264     -0.781750
  O      -5.311109      0.336136      1.561449
  H      -4.420442      0.408103      1.924173
  H      -5.666698      1.229904      1.627893
  O      -4.472120      0.217299     -3.267025
  H      -4.680941     -0.693135     -3.505304
  H      -3.516398      0.278354     -3.378647
32
Coordinates from ORCA-job cu_P2_cplx E -2630.077272510146
  Cu     -4.602308      0.273613     -0.829278
  C       3.851470     -0.871572      0.835826
  O       2.608502     -0.219441      0.582202
  C       1.551467     -1.018042      0.386062
  O       1.651231     -2.233729      0.429312
  C       0.309484     -0.289471      0.123723
  C      -0.863512     -1.031390     -0.066702
  C      -2.066603     -0.388606     -0.322376
  O      -3.223658     -1.022374     -0.511064
  C      -2.093855      1.022981     -0.391501
  O      -3.237949      1.637719     -0.640019
  C      -0.913255      1.746127     -0.197315
  O      -0.969044      3.114835     -0.267430
  C       0.284178      1.106909      0.058710
  H       3.790457     -1.481770      1.737794
  H       4.579115     -0.075265      0.973228
  H       4.138174     -1.497108     -0.010680
  H      -0.834143     -2.113230     -0.014323
  H      -1.891981      3.336950     -0.461597
  H       1.182483      1.692325      0.203013
  O      -6.040764     -1.168303     -0.991884
  H      -5.622927     -1.996156     -1.260905
  H      -6.387076     -1.335634     -0.105190
  O      -6.064428      1.670774     -1.131054
  H      -6.139983      1.808042     -2.084729
  H      -5.761007      2.517731     -0.779058
  O      -5.304545      0.342823      1.560665
  H      -4.414431      0.406034      1.926453
  H      -5.653655      1.239011      1.630725
  O      -4.471659      0.213428     -3.267709
  H      -4.668000     -0.700272     -3.502220
  H      -3.517007      0.288123     -3.376600
32
Coordinates from ORCA-job cu_P2_cplx E -2630.077277203918
  Cu     -4.604959      0.274676     -0.827110
  C       3.848445     -0.873062      0.838536
  O       2.606656     -0.220233      0.581630
  C       1.548583     -1.018638      0.387173
  O       1.647197     -2.234203      0.435126
  C       0.307691     -0.289804      0.121890
  C      -0.866006     -1.031112     -0.068242
  C      -2.068421     -0.387466     -0.323621
  O      -3.226103     -1.020759     -0.512154
  C      -2.095613      1.024397     -0.392620
  O      -3.238862      1.640763     -0.640025
  C      -0.913899      1.746613     -0.200982
  O      -0.968742      3.114873     -0.276331
  C       0.283243      1.106423      0.054714
  H       3.785539     -1.480717      1.742027
  H       4.576924     -0.077279      0.974415
  H       4.135527     -1.501455     -0.005650
  H      -0.837873     -2.112774     -0.014608
  H      -1.892078      3.336851     -0.469177
  H       1.182374      1.691169      0.197020
  O      -6.038614     -1.171172     -0.999310
  H      -5.616727     -1.995505     -1.273018
  H      -6.386855     -1.348747     -0.115410
  O      -6.071526      1.667688     -1.123599
  H      -6.156424      1.809112     -2.075964
  H      -5.771492      2.516122     -0.772041
  O      -5.293670      0.350930      1.560298
  H      -4.404465      0.399549      1.930411
  H      -5.631881      1.250849      1.635973
  O      -4.471087      0.209514     -3.267268
  H      -4.643699     -0.710633     -3.494819
  H      -3.518412      0.309093     -3.371185
32
Coordinates from ORCA-job cu_P2_cplx E -2630.077292265037
  Cu     -4.607320      0.275932     -0.825083
  C       3.846145     -0.874100      0.838597
  O       2.605330     -0.221001      0.579156
  C       1.545673     -1.019372      0.388759
  O       1.642815     -2.234834      0.441491
  C       0.305645     -0.290353      0.121652
  C      -0.868749     -1.031197     -0.067378
  C      -2.070569     -0.386700     -0.323114
  O      -3.228366     -1.019870     -0.511510
  C      -2.097363      1.025414     -0.393192
  O      -3.239937      1.643415     -0.640398
  C      -0.914770      1.746831     -0.203469
  O      -0.968758      3.114637     -0.282681
  C       0.282012      1.105905      0.052406
  H       3.782777     -1.477384      1.745190
  H       4.576091     -0.078552      0.970308
  H       4.132026     -1.507099     -0.002628
  H      -0.841518     -2.112934     -0.012555
  H      -1.892499      3.336864     -0.473669
  H       1.181769      1.690121      0.193294
  O      -6.037047     -1.172624     -1.008274
  H      -5.611730     -1.994082     -1.286423
  H      -6.387326     -1.358927     -0.127199
  O      -6.076695      1.663851     -1.117094
  H      -6.171285      1.807984     -2.067826
  H      -5.780452      2.513454     -0.765164
  O      -5.284943      0.359614      1.560109
  H      -4.397246      0.394213      1.934918
  H      -5.611638      1.263321      1.638864
  O      -4.470273      0.205283     -3.268432
  H      -4.617475     -0.721918     -3.485950
  H      -3.519555      0.329172     -3.366626
32
Coordinates from ORCA-job cu_P2_cplx E -2630.077317894363
  Cu     -4.610418      0.277178     -0.822426
  C       3.843248     -0.875002      0.838517
  O       2.603491     -0.221920      0.575500
  C       1.542226     -1.020203      0.390436
  O       1.637653     -2.235699      0.449129
  C       0.302989     -0.290857      0.121212
  C      -0.872016     -1.031175     -0.066056
  C      -2.073618     -0.386105     -0.322043
  O      -3.231212     -1.019490     -0.509748
  C      -2.099592      1.025821     -0.394174
  O      -3.241806      1.645178     -0.640763
  C      -0.916166      1.746780     -0.207238
  O      -0.969154      3.114676     -0.291260
  C       0.280270      1.105537      0.049319
  H       3.779611     -1.472138      1.749370
  H       4.574843     -0.079685      0.964698
  H       4.127813     -1.514073      0.001358
  H      -0.845466     -2.113263     -0.009462
  H      -1.893264      3.337417     -0.480415
  H       1.180649      1.689508      0.188410
  O      -6.036725     -1.173576     -1.019809
  H      -5.608069     -1.991707     -1.303701
  H      -6.389718     -1.369344     -0.142128
  O      -6.081519      1.659469     -1.108599
  H      -6.186854      1.806348     -2.057689
  H      -5.789725      2.509504     -0.754855
  O      -5.274853      0.368965      1.560236
  H      -4.388700      0.387059      1.939368
  H      -5.586959      1.277227      1.641853
  O      -4.468187      0.200783     -3.269486
  H      -4.583775     -0.734202     -3.473750
  H      -3.520226      0.352052     -3.359726
32
Coordinates from ORCA-job cu_P2_cplx E -2630.077328679954
  Cu     -4.612997      0.278178     -0.820290
  C       3.840787     -0.876267      0.838011
  O       2.602006     -0.222944      0.571838
  C       1.539530     -1.020630      0.391298
  O       1.633415     -2.236163      0.454382
  C       0.300764     -0.290760      0.120730
  C      -0.874466     -1.030594     -0.065120
  C      -2.076320     -0.385539     -0.321229
  O      -3.233318     -1.019437     -0.508370
  C      -2.101439      1.026057     -0.395408
  O      -3.243849      1.645909     -0.641456
  C      -0.917574      1.746864     -0.210261
  O      -0.970145      3.114888     -0.295256
  C       0.278694      1.105806      0.047073
  H       3.776812     -1.467734      1.752562
  H       4.573944     -0.081451      0.959334
  H       4.124010     -1.520688      0.004497
  H      -0.847850     -2.112672     -0.008161
  H      -1.894442      3.338133     -0.482885
  H       1.179205      1.689733      0.185698
  O      -6.036826     -1.174582     -1.030245
  H      -5.604780     -1.989460     -1.318541
  H      -6.393698     -1.377550     -0.155811
  O      -6.084876      1.655502     -1.100919
  H      -6.200490      1.803473     -2.048308
  H      -5.797126      2.505943     -0.745189
  O      -5.266680      0.378796      1.559876
  H      -4.382003      0.382518      1.942649
  H      -5.564640      1.291568      1.641892
  O      -4.466657      0.195141     -3.271710
  H      -4.552699     -0.746629     -3.460369
  H      -3.521522      0.369652     -3.354233
32
Coordinates from ORCA-job cu_P2_cplx E -2630.077345770552
  Cu     -4.614528      0.278466     -0.819062
  C       3.839255     -0.876735      0.838661
  O       2.600992     -0.223499      0.569379
  C       1.538468     -1.020679      0.390780
  O       1.631711     -2.236180      0.456088
  C       0.299691     -0.290504      0.119439
  C      -0.875413     -1.030267     -0.065108
  C      -2.077794     -0.385609     -0.321090
  O      -3.234461     -1.019952     -0.507246
  C      -2.102297      1.025497     -0.396938
  O      -3.245229      1.644871     -0.642631
  C      -0.918385      1.746611     -0.212991
  O      -0.970976      3.115095     -0.297543
  C       0.277946      1.106083      0.044830
  H       3.774548     -1.464244      1.755634
  H       4.572939     -0.082207      0.957294
  H       4.122425     -1.524575      0.007808
  H      -0.848619     -2.112495     -0.007062
  H      -1.895344      3.338400     -0.484901
  H       1.178286      1.690291      0.183369
  O      -6.038153     -1.174777     -1.036898
  H      -5.605022     -1.988087     -1.327276
  H      -6.398912     -1.380858     -0.164839
  O      -6.086410      1.653533     -1.094941
  H      -6.208056      1.802253     -2.041602
  H      -5.801843      2.504022     -0.737375
  O      -5.262171      0.383930      1.560326
  H      -4.377553      0.378857      1.943601
  H      -5.550025      1.300102      1.640795
  O      -4.465161      0.192303     -3.274064
  H      -4.533404     -0.753323     -3.449944
  H      -3.521737      0.378738     -3.350414
32
Coordinates from ORCA-job cu_P2_cplx E -2630.077350000288
  Cu     -4.616151      0.278246     -0.818120
  C       3.837749     -0.876962      0.840119
  O       2.599841     -0.223727      0.568137
  C       1.537640     -1.020461      0.389927
  O       1.630700     -2.235877      0.456211
  C       0.298748     -0.290221      0.117714
  C      -0.876070     -1.030122     -0.066106
  C      -2.079024     -0.386082     -0.321600
  O      -3.235636     -1.020610     -0.506341
  C      -2.103235      1.024809     -0.399047
  O      -3.246645      1.643170     -0.644981
  C      -0.919498      1.746253     -0.215716
  O      -0.972449      3.114906     -0.298811
  C       0.277042      1.106276      0.042242
  H       3.771901     -1.461827      1.758513
  H       4.571546     -0.082605      0.957308
  H       4.121237     -1.527023      0.011228
  H      -0.848893     -2.112016     -0.007454
  H      -1.896647      3.337954     -0.486902
  H       1.177093      1.690781      0.180893
  O      -6.039636     -1.175440     -1.041407
  H      -5.605741     -1.987492     -1.333190
  H      -6.405473     -1.384407     -0.172191
  O      -6.087970      1.653181     -1.089631
  H      -6.214218      1.803320     -2.035395
  H      -5.805641      2.503776     -0.730448
  O      -5.257428      0.388236      1.561238
  H      -4.372051      0.375738      1.942928
  H      -5.536511      1.307300      1.641109
  O      -4.462308      0.189257     -3.275782
  H      -4.516904     -0.758832     -3.441864
  H      -3.520601      0.385567     -3.346503
32
Coordinates from ORCA-job cu_P2_cplx E -2630.077376003083
  Cu     -4.618787      0.277630     -0.816710
  C       3.835568     -0.876680      0.842155
  O       2.597904     -0.223658      0.567015
  C       1.536355     -1.020117      0.388882
  O       1.629489     -2.235342      0.456316
  C       0.297238     -0.290181      0.115399
  C      -0.877317     -1.030562     -0.067318
  C      -2.080785     -0.387253     -0.322346
  O      -3.237724     -1.021668     -0.504765
  C      -2.104826      1.023488     -0.402179
  O      -3.248674      1.640195     -0.649533
  C      -0.921439      1.745403     -0.219350
  O      -0.974784      3.114294     -0.301508
  C       0.275412      1.106024      0.038778
  H       3.768252     -1.458616      1.762028
  H       4.569179     -0.082337      0.957722
  H       4.119528     -1.529157      0.015537
  H      -0.850051     -2.112266     -0.006311
  H      -1.898583      3.336739     -0.491853
  H       1.175071      1.690965      0.177336
  O      -6.041447     -1.176743     -1.048076
  H      -5.606313     -1.987101     -1.341405
  H      -6.417260     -1.391107     -0.184442
  O      -6.090748      1.653969     -1.081338
  H      -6.223708      1.807882     -2.025799
  H      -5.810949      2.504411     -0.719898
  O      -5.250023      0.394696      1.563970
  H      -4.363099      0.370809      1.941974
  H      -5.515798      1.317940      1.643313
  O      -4.456584      0.184297     -3.279088
  H      -4.492372     -0.766698     -3.431241
  H      -3.517956      0.395809     -3.341185
32
Coordinates from ORCA-job cu_P2_cplx E -2630.077371885867
  Cu     -4.619765      0.276728     -0.816104
  C       3.835130     -0.875875      0.842114
  O       2.597186     -0.223177      0.566735
  C       1.535924     -1.019872      0.388672
  O       1.629374     -2.235055      0.456234
  C       0.296535     -0.290468      0.114977
  C      -0.877861     -1.031277     -0.067496
  C      -2.081449     -0.388443     -0.322499
  O      -3.238691     -1.022640     -0.503353
  C      -2.105719      1.022457     -0.403642
  O      -3.249774      1.638049     -0.652525
  C      -0.922769      1.744641     -0.220451
  O      -0.976464      3.113495     -0.301866
  C       0.274343      1.105553      0.037695
  H       3.767668     -1.457282      1.762180
  H       4.568389     -0.081232      0.957059
  H       4.118971     -1.528791      0.015932
  H      -0.850313     -2.112564     -0.005714
  H      -1.899789      3.335530     -0.494518
  H       1.173781      1.690768      0.176147
  O      -6.042994     -1.176536     -1.050074
  H      -5.608971     -1.987611     -1.342739
  H      -6.425094     -1.391542     -0.189306
  O      -6.091771      1.655461     -1.078596
  H      -6.225095      1.810689     -2.022753
  H      -5.813101      2.506067     -0.716369
  O      -5.248515      0.395668      1.566333
  H      -4.359223      0.368133      1.938617
  H      -5.508594      1.320949      1.643146
  O      -4.451194      0.183039     -3.280050
  H      -4.481887     -0.769194     -3.425061
  H      -3.513500      0.399393     -3.336648
32
Coordinates from ORCA-job cu_P2_cplx E -2630.077382998337
  Cu     -4.618921      0.275469     -0.816034
  C       3.836524     -0.874771      0.840451
  O       2.597901     -0.222361      0.567400
  C       1.536949     -1.019670      0.388199
  O       1.631236     -2.234872      0.453812
  C       0.297206     -0.290988      0.115358
  C      -0.876943     -1.032365     -0.068696
  C      -2.080380     -0.389789     -0.323630
  O      -3.237842     -1.023627     -0.504473
  C      -2.105626      1.021435     -0.403303
  O      -3.249918      1.635999     -0.653362
  C      -0.923533      1.743985     -0.217790
  O      -0.977635      3.112902     -0.297597
  C       0.273937      1.104957      0.039817
  H       3.769862     -1.458257      1.759238
  H       4.569207     -0.079662      0.956294
  H       4.120029     -1.525929      0.012822
  H      -0.849038     -2.113774     -0.007100
  H      -1.900381      3.334879     -0.492789
  H       1.173062      1.690468      0.179199
  O      -6.042538     -1.176076     -1.048690
  H      -5.610338     -1.990058     -1.336117
  H      -6.430859     -1.386273     -0.189299
  O      -6.090369      1.658588     -1.079411
  H      -6.220631      1.812169     -2.024308
  H      -5.810528      2.509664     -0.719314
  O      -5.254539      0.393865      1.569098
  H      -4.362068      0.370625      1.933554
  H      -5.515071      1.319698      1.637432
  O      -4.448427      0.183633     -3.281377
  H      -4.486138     -0.769609     -3.418791
  H      -3.509420      0.394807     -3.334516
32
Coordinates from ORCA-job cu_P2_cplx E -2630.077387865051
  Cu     -4.620640      0.274998     -0.814497
  C       3.835633     -0.874302      0.838006
  O       2.596612     -0.222151      0.566987
  C       1.535174     -1.020044      0.389051
  O       1.629568     -2.235228      0.455513
  C       0.295497     -0.291759      0.116546
  C      -0.878886     -1.033271     -0.067765
  C      -2.081804     -0.390335     -0.323327
  O      -3.239586     -1.023886     -0.503960
  C      -2.107384      1.021116     -0.403152
  O      -3.251253      1.635914     -0.654179
  C      -0.925345      1.743630     -0.217104
  O      -0.979000      3.112390     -0.298889
  C       0.271966      1.104203      0.040846
  H       3.770516     -1.458337      1.756765
  H       4.568452     -0.078935      0.952981
  H       4.118129     -1.525263      0.009746
  H      -0.851111     -2.114705     -0.006286
  H      -1.901695      3.334544     -0.494324
  H       1.171303      1.689627      0.179850
  O      -6.041402     -1.176684     -1.052434
  H      -5.607718     -1.990512     -1.339208
  H      -6.436619     -1.389815     -0.197194
  O      -6.092603      1.659428     -1.077453
  H      -6.225043      1.814138     -2.021690
  H      -5.811876      2.510326     -0.717785
  O      -5.252693      0.398418      1.571106
  H      -4.358873      0.369452      1.931418
  H      -5.505978      1.326229      1.636927
  O      -4.442918      0.179611     -3.281665
  H      -4.469642     -0.775331     -3.409964
  H      -3.506012      0.401600     -3.328786
32
Coordinates from ORCA-job cu_P2_cplx E -2630.077396387702
  Cu     -4.620698      0.274495     -0.813683
  C       3.835915     -0.873804      0.834748
  O       2.596341     -0.221898      0.567061
  C       1.534674     -1.020413      0.389280
  O       1.629488     -2.235685      0.454945
  C       0.294898     -0.292298      0.118048
  C      -0.879533     -1.033890     -0.066960
  C      -2.082052     -0.390549     -0.323086
  O      -3.239838     -1.024242     -0.504448
  C      -2.107983      1.021025     -0.401900
  O      -3.251637      1.636454     -0.652617
  C      -0.926046      1.743607     -0.214761
  O      -0.979444      3.112204     -0.297023
  C       0.271027      1.103879      0.043416
  H       3.772842     -1.460340      1.752284
  H       4.568706     -0.078244      0.950672
  H       4.117784     -1.522601      0.004423
  H      -0.851572     -2.115521     -0.007138
  H      -1.902368      3.334893     -0.490995
  H       1.170445      1.689199      0.182833
  O      -6.039875     -1.175782     -1.052416
  H      -5.606168     -1.991029     -1.336214
  H      -6.437531     -1.386469     -0.197621
  O      -6.092133      1.659781     -1.079971
  H      -6.222101      1.812695     -2.024836
  H      -5.808916      2.510405     -0.721649
  O      -5.257307      0.398762      1.572972
  H      -4.361775      0.371402      1.928946
  H      -5.509408      1.327263      1.633021
  O      -4.440573      0.178810     -3.281499
  H      -4.467339     -0.777220     -3.404002
  H      -3.503055      0.400175     -3.325749
32
Coordinates from ORCA-job cu_P2_cplx E -2630.077390668829
  Cu     -4.622607      0.273976     -0.811803
  C       3.834280     -0.873907      0.832662
  O       2.594590     -0.221899      0.566683
  C       1.532811     -1.020574      0.388825
  O       1.627879     -2.235854      0.453977
  C       0.293031     -0.292338      0.118274
  C      -0.881500     -1.033828     -0.066358
  C      -2.083986     -0.390414     -0.322832
  O      -3.241649     -1.024619     -0.503993
  C      -2.109840      1.020976     -0.401740
  O      -3.253341      1.637103     -0.651206
  C      -0.927706      1.743660     -0.214921
  O      -0.980871      3.112162     -0.298816
  C       0.269182      1.104024      0.043559
  H       3.772257     -1.462252      1.749233
  H       4.567135     -0.078454      0.949807
  H       4.116169     -1.521105      0.000923
  H      -0.853577     -2.115892     -0.006681
  H      -1.904230      3.335388     -0.490449
  H       1.168767      1.689298      0.182651
  O      -6.039429     -1.175224     -1.054971
  H      -5.604310     -1.990044     -1.338072
  H      -6.440365     -1.386923     -0.202041
  O      -6.093408      1.658895     -1.080184
  H      -6.223030      1.811647     -2.025096
  H      -5.807631      2.508550     -0.721674
  O      -5.256720      0.401857      1.575160
  H      -4.359690      0.369771      1.926967
  H      -5.502004      1.332301      1.632825
  O      -4.435336      0.175402     -3.280249
  H      -4.450630     -0.781998     -3.395258
  H      -3.499470      0.405379     -3.319125
32
Coordinates from ORCA-job cu_P2_cplx E -2630.077383247394
  Cu     -4.624580      0.273263     -0.810301
  C       3.832643     -0.873579      0.831411
  O       2.592645     -0.221781      0.566493
  C       1.531326     -1.020609      0.387686
  O       1.626897     -2.235917      0.451698
  C       0.291279     -0.292268      0.117826
  C      -0.883192     -1.033690     -0.065882
  C      -2.085977     -0.390490     -0.322443
  O      -3.243543     -1.025276     -0.502856
  C      -2.111574      1.020608     -0.402039
  O      -3.255162      1.637190     -0.649960
  C      -0.929197      1.743443     -0.216030
  O      -0.982543      3.111757     -0.300404
  C       0.267625      1.104140      0.042669
  H       3.771179     -1.463869      1.746792
  H       4.565045     -0.078056      0.950446
  H       4.115192     -1.518740     -0.001742
  H      -0.855135     -2.115656     -0.006514
  H      -1.906408      3.335042     -0.489597
  H       1.167219      1.689414      0.181405
  O      -6.040939     -1.173891     -1.055693
  H      -5.605578     -1.988712     -1.338222
  H      -6.443316     -1.385189     -0.203383
  O      -6.094010      1.658024     -1.081515
  H      -6.221254      1.810890     -2.026731
  H      -5.805350      2.506445     -0.722309
  O      -5.256261      0.402978      1.577664
  H      -4.357359      0.366917      1.924632
  H      -5.495499      1.335150      1.634378
  O      -4.429223      0.173169     -3.278651
  H      -4.435556     -0.784827     -3.389778
  H      -3.494625      0.409186     -3.312972
32
Coordinates from ORCA-job cu_P2_cplx E -2630.077412258664
  Cu     -4.626846      0.272497     -0.808766
  C       3.830773     -0.873618      0.830953
  O       2.590567     -0.221786      0.566408
  C       1.529801     -1.020432      0.386180
  O       1.625719     -2.235742      0.448562
  C       0.289500     -0.291936      0.116771
  C      -0.884831     -1.033291     -0.066154
  C      -2.088047     -0.390546     -0.322569
  O      -3.245421     -1.025804     -0.502360
  C      -2.113500      1.020314     -0.402433
  O      -3.257412      1.637014     -0.648490
  C      -0.930944      1.743272     -0.217355
  O      -0.984749      3.111510     -0.301703
  C       0.266072      1.104455      0.040991
  H       3.769030     -1.465539      1.745160
  H       4.562612     -0.078042      0.951931
  H       4.114109     -1.517011     -0.003270
  H      -0.856822     -2.115262     -0.006004
  H      -1.908984      3.334563     -0.489303
  H       1.165656      1.689811      0.179190
  O      -6.042833     -1.173424     -1.056668
  H      -5.606349     -1.987680     -1.338312
  H      -6.447465     -1.384839     -0.205302
  O      -6.094964      1.657210     -1.081720
  H      -6.221279      1.810733     -2.026996
  H      -5.803180      2.504600     -0.722270
  O      -5.254584      0.405416      1.580252
  H      -4.354336      0.363045      1.923326
  H      -5.485907      1.339760      1.636865
  O      -4.422851      0.169575     -3.278249
  H      -4.417070     -0.788863     -3.384524
  H      -3.490697      0.415100     -3.308065
32
Coordinates from ORCA-job cu_P2_cplx E -2630.077413545251
  Cu     -4.629150      0.271533     -0.807411
  C       3.829184     -0.873313      0.830710
  O       2.588638     -0.221608      0.566220
  C       1.528635     -1.020140      0.384218
  O       1.624956     -2.235499      0.444770
  C       0.287890     -0.291639      0.115304
  C      -0.886293     -1.033159     -0.066409
  C      -2.090004     -0.390960     -0.322530
  O      -3.247327     -1.026565     -0.501485
  C      -2.115489      1.019741     -0.402531
  O      -3.259936      1.636349     -0.646619
  C      -0.932832      1.742918     -0.218771
  O      -0.987421      3.111101     -0.302704
  C       0.264566      1.104621      0.038844
  H       3.766801     -1.466674      1.743822
  H       4.560242     -0.077519      0.953589
  H       4.113435     -1.515036     -0.004427
  H      -0.858282     -2.114798     -0.005423
  H      -1.912037      3.333368     -0.489369
  H       1.164042      1.690172      0.176211
  O      -6.046187     -1.172712     -1.056415
  H      -5.609455     -1.987366     -1.335967
  H      -6.452740     -1.382571     -0.205619
  O      -6.095443      1.656746     -1.082591
  H      -6.219868      1.811013     -2.028033
  H      -5.800038      2.503202     -0.723537
  O      -5.253732      0.406780      1.583599
  H      -4.352098      0.357401      1.922445
  H      -5.476516      1.343349      1.640431
  O      -4.415157      0.166521     -3.278687
  H      -4.397897     -0.791929     -3.381373
  H      -3.485717      0.421734     -3.304182
32
Coordinates from ORCA-job cu_P2_cplx E -2630.077415677832
  Cu     -4.631018      0.270728     -0.806452
  C       3.828082     -0.872728      0.830191
  O       2.587122     -0.221360      0.565739
  C       1.527794     -1.019971      0.382383
  O       1.624488     -2.235386      0.441184
  C       0.286641     -0.291661      0.113912
  C      -0.887379     -1.033402     -0.067032
  C      -2.091435     -0.391594     -0.322651
  O      -3.248725     -1.027240     -0.501250
  C      -2.117282      1.019113     -0.401704
  O      -3.262410      1.635494     -0.643795
  C      -0.934682      1.742425     -0.219154
  O      -0.990143      3.110643     -0.302047
  C       0.263250      1.104449      0.037124
  H       3.765110     -1.466808      1.742674
  H       4.558427     -0.076526      0.954031
  H       4.112791     -1.513502     -0.005399
  H      -0.859395     -2.114831     -0.005080
  H      -1.914912      3.332002     -0.488969
  H       1.162653      1.690218      0.173614
  O      -6.049722     -1.172631     -1.055221
  H      -5.612780     -1.988194     -1.331420
  H      -6.457465     -1.379666     -0.204132
  O      -6.095121      1.657038     -1.083916
  H      -6.217993      1.811244     -2.029589
  H      -5.795953      2.503079     -0.726601
  O      -5.254246      0.408090      1.586320
  H      -4.352044      0.351447      1.922551
  H      -5.468823      1.346671      1.643255
  O      -4.408061      0.163734     -3.280154
  H      -4.380508     -0.794528     -3.379986
  H      -3.481491      0.428717     -3.302346
32
Coordinates from ORCA-job cu_P2_cplx E -2630.077421586838
  Cu     -4.633086      0.270069     -0.805359
  C       3.826858     -0.871975      0.829248
  O       2.585651     -0.221016      0.564233
  C       1.526654     -1.019902      0.380551
  O       1.623509     -2.235385      0.438835
  C       0.285164     -0.292017      0.112336
  C      -0.888860     -1.034142     -0.067548
  C      -2.093072     -0.392475     -0.322486
  O      -3.250518     -1.027981     -0.500521
  C      -2.119493      1.018452     -0.400301
  O      -3.265293      1.634641     -0.640588
  C      -0.936914      1.741911     -0.219495
  O      -0.993072      3.110199     -0.301634
  C       0.261541      1.103932      0.035148
  H       3.763371     -1.465352      1.742140
  H       4.556873     -0.075381      0.952540
  H       4.111587     -1.513307     -0.005844
  H      -0.860787     -2.115320     -0.004978
  H      -1.917893      3.330620     -0.489440
  H       1.160967      1.689865      0.170458
  O      -6.053595     -1.172824     -1.054211
  H      -5.616661     -1.989942     -1.326117
  H      -6.462625     -1.376412     -0.202906
  O      -6.094975      1.657405     -1.085037
  H      -6.217323      1.810861     -2.030894
  H      -5.792469      2.503539     -0.730512
  O      -5.255092      0.410051      1.589240
  H      -4.353115      0.342499      1.923933
  H      -5.458214      1.351172      1.646137
  O      -4.399657      0.160601     -3.282640
  H      -4.357318     -0.797536     -3.377647
  H      -3.477375      0.440215     -3.300566
32
Coordinates from ORCA-job cu_P2_cplx E -2630.077426937258
  Cu     -4.635306      0.269676     -0.804128
  C       3.825325     -0.871524      0.827542
  O       2.584139     -0.220838      0.561939
  C       1.524859     -1.020002      0.379288
  O       1.621551     -2.235518      0.438466
  C       0.283312     -0.292513      0.110953
  C      -0.890932     -1.034899     -0.067737
  C      -2.095102     -0.393163     -0.321958
  O      -3.252742     -1.028494     -0.499204
  C      -2.122153      1.018052     -0.398457
  O      -3.268438      1.634243     -0.637255
  C      -0.939454      1.741574     -0.219942
  O      -0.995851      3.109993     -0.302215
  C       0.259384      1.103345      0.033124
  H       3.761784     -1.463209      1.741570
  H       4.555634     -0.074741      0.949027
  H       4.109461     -1.514544     -0.006421
  H      -0.862704     -2.116131     -0.004704
  H      -1.920558      3.329888     -0.491295
  H       1.159047      1.689346      0.166951
  O      -6.057112     -1.173269     -1.053450
  H      -5.620359     -1.992044     -1.321262
  H      -6.466847     -1.373469     -0.201616
  O      -6.095771      1.657486     -1.086216
  H      -6.218403      1.808781     -2.032295
  H      -5.791282      2.504370     -0.735071
  O      -5.255839      0.412355      1.591233
  H      -4.354993      0.330467      1.925321
  H      -5.444399      1.356408      1.648091
  O      -4.389941      0.157493     -3.284607
  H      -4.328036     -0.800274     -3.372665
  H      -3.473506      0.456216     -3.296926
32
Coordinates from ORCA-job cu_P2_cplx E -2630.077435557395
  Cu     -4.637421      0.269607     -0.803027
  C       3.823365     -0.871437      0.825382
  O       2.582582     -0.220840      0.558820
  C       1.522656     -1.020285      0.378165
  O       1.619031     -2.235746      0.439471
  C       0.281288     -0.293118      0.109598
  C      -0.893340     -1.035617     -0.067838
  C      -2.097368     -0.393569     -0.321087
  O      -3.255264     -1.028761     -0.497306
  C      -2.124942      1.017957     -0.396553
  O      -3.271457      1.634287     -0.634483
  C      -0.941952      1.741421     -0.220471
  O      -0.998050      3.109919     -0.303184
  C       0.257052      1.102730      0.031242
  H       3.760135     -1.460418      1.741299
  H       4.554511     -0.074789      0.944027
  H       4.106600     -1.517255     -0.006776
  H      -0.864758     -2.116995     -0.005343
  H      -1.922540      3.329916     -0.493241
  H       1.157057      1.688641      0.163723
  O      -6.059587     -1.173823     -1.052126
  H      -5.623180     -1.994415     -1.315719
  H      -6.469145     -1.369972     -0.199296
  O      -6.097222      1.657018     -1.087933
  H      -6.221183      1.804421     -2.034422
  H      -5.792174      2.505256     -0.740813
  O      -5.257216      0.414857      1.592574
  H      -4.358604      0.315844      1.927574
  H      -5.428411      1.362015      1.649218
  O      -4.380182      0.154598     -3.286716
  H      -4.294377     -0.802412     -3.365761
  H      -3.471136      0.476031     -3.292918
32
Coordinates from ORCA-job cu_P2_cplx E -2630.077446979887
  Cu     -4.639080      0.269934     -0.802527
  C       3.821477     -0.872055      0.822745
  O       2.581352     -0.221214      0.555540
  C       1.520377     -1.020720      0.377657
  O       1.616243     -2.236041      0.441872
  C       0.279416     -0.293558      0.108831
  C      -0.895737     -1.035885     -0.067563
  C      -2.099581     -0.393407     -0.319819
  O      -3.257672     -1.028554     -0.495030
  C      -2.127350      1.018329     -0.395005
  O      -3.273689      1.634853     -0.633173
  C      -0.943932      1.741562     -0.220711
  O      -0.999107      3.110132     -0.304338
  C       0.254985      1.102386      0.030257
  H       3.759087     -1.458271      1.740609
  H       4.553913     -0.075945      0.938318
  H       4.103537     -1.520827     -0.007574
  H      -0.866821     -2.117656     -0.006072
  H      -1.923309      3.331036     -0.494715
  H       1.155362      1.688069      0.161932
  O      -6.060111     -1.174651     -1.049738
  H      -5.624028     -1.996635     -1.310050
  H      -6.468241     -1.366886     -0.195359
  O      -6.099390      1.656223     -1.090775
  H      -6.225454      1.798028     -2.037759
  H      -5.795720      2.506439     -0.747712
  O      -5.259193      0.416852      1.592147
  H      -4.363819      0.300769      1.929862
  H      -5.413213      1.366700      1.649216
  O      -4.372171      0.152669     -3.287865
  H      -4.262395     -0.802865     -3.358424
  H      -3.470968      0.496252     -3.288699
32
Coordinates from ORCA-job cu_P2_cplx E -2630.077463760904
  Cu     -4.640335      0.270538     -0.802761
  C       3.819820     -0.873150      0.819170
  O       2.580196     -0.221992      0.552346
  C       1.518037     -1.021410      0.377915
  O       1.613382     -2.236500      0.445255
  C       0.277506     -0.293914      0.109303
  C      -0.898127     -1.035756     -0.066604
  C      -2.101812     -0.392777     -0.318005
  O      -3.260090     -1.027929     -0.492298
  C      -2.129245      1.018943     -0.394228
  O      -3.274942      1.635569     -0.634079
  C      -0.945378      1.741778     -0.220405
  O      -0.999155      3.110319     -0.305050
  C       0.253160      1.102221      0.030779
  H       3.759195     -1.457197      1.738617
  H       4.553577     -0.077746      0.931837
  H       4.100462     -1.524254     -0.009888
  H      -0.868994     -2.117907     -0.006653
  H      -1.923096      3.332818     -0.494660
  H       1.153837      1.687603      0.162373
  O      -6.058462     -1.175551     -1.046138
  H      -5.622598     -1.998547     -1.303739
  H      -6.465171     -1.364002     -0.190328
  O      -6.102047      1.655328     -1.095208
  H      -6.230858      1.790244     -2.042898
  H      -5.801310      2.507956     -0.756234
  O      -5.262165      0.418535      1.590292
  H      -4.370592      0.285743      1.931847
  H      -5.398995      1.370813      1.648318
  O      -4.365861      0.151432     -3.288142
  H      -4.232514     -0.801940     -3.350501
  H      -3.472656      0.515793     -3.284153
32
Coordinates from ORCA-job cu_P2_cplx E -2630.077479797035
  Cu     -4.642824      0.271152     -0.802823
  C       3.817253     -0.874688      0.814307
  O       2.578042     -0.223064      0.548265
  C       1.514664     -1.022149      0.377987
  O       1.609429     -2.236957      0.448654
  C       0.274463     -0.294174      0.109949
  C      -0.901740     -1.035439     -0.064810
  C      -2.105390     -0.392037     -0.315266
  O      -3.263862     -1.027177     -0.488308
  C      -2.132165      1.019586     -0.393575
  O      -3.277144      1.636281     -0.635456
  C      -0.947699      1.741908     -0.220377
  O      -1.000023      3.110398     -0.306648
  C       0.250455      1.102069      0.031218
  H       3.758654     -1.456304      1.735468
  H       4.552393     -0.080072      0.923508
  H       4.095933     -1.528343     -0.013472
  H      -0.872670     -2.117900     -0.005622
  H      -1.923790      3.334543     -0.494988
  H       1.151446      1.687076      0.162495
  O      -6.057106     -1.176920     -1.041944
  H      -5.620605     -2.000663     -1.295846
  H      -6.463485     -1.361478     -0.185162
  O      -6.105749      1.653884     -1.101268
  H      -6.239152      1.780623     -2.049419
  H      -5.807816      2.509575     -0.768018
  O      -5.264578      0.422309      1.588359
  H      -4.379026      0.264146      1.934844
  H      -5.375466      1.377704      1.649539
  O      -4.355598      0.147786     -3.288496
  H      -4.186018     -0.800637     -3.339058
  H      -3.476054      0.544023     -3.277956
32
Coordinates from ORCA-job cu_P2_cplx E -2630.077489134506
  Cu     -4.646417      0.271460     -0.802559
  C       3.814430     -0.876294      0.806819
  O       2.575059     -0.224390      0.542638
  C       1.510600     -1.023022      0.377636
  O       1.604783     -2.237595      0.451447
  C       0.270268     -0.294544      0.111178
  C      -0.906372     -1.035283     -0.062090
  C      -2.110216     -0.391662     -0.311471
  O      -3.268884     -1.026756     -0.483238
  C      -2.136148      1.019734     -0.392363
  O      -3.280602      1.636345     -0.636157
  C      -0.951226      1.741614     -0.219555
  O      -1.002486      3.110039     -0.306788
  C       0.246763      1.101766      0.032085
  H       3.758481     -1.455372      1.729701
  H       4.550613     -0.082193      0.911786
  H       4.090331     -1.532373     -0.019972
  H      -0.877585     -2.117773     -0.003073
  H      -1.926239      3.335496     -0.493345
  H       1.147965      1.686601      0.162792
  O      -6.057004     -1.178235     -1.037161
  H      -5.619299     -2.003815     -1.282490
  H      -6.466685     -1.355435     -0.180435
  O      -6.109422      1.651585     -1.110107
  H      -6.249759      1.767409     -2.058724
  H      -5.812962      2.511369     -0.786609
  O      -5.269639      0.429323      1.587869
  H      -4.393472      0.233728      1.939742
  H      -5.340557      1.388545      1.651188
  O      -4.339655      0.140429     -3.291588
  H      -4.117545     -0.797910     -3.319732
  H      -3.482351      0.582271     -3.271346
32
Coordinates from ORCA-job cu_P2_cplx E -2630.077451640097
  Cu     -4.639535      0.273405     -0.810197
  C       3.821339     -0.879495      0.802325
  O       2.579481     -0.226637      0.547499
  C       1.516355     -1.023354      0.381707
  O       1.611468     -2.237913      0.448972
  C       0.274645     -0.292561      0.121117
  C      -0.900571     -1.031986     -0.058290
  C      -2.105426     -0.389007     -0.308936
  O      -3.263213     -1.024101     -0.485678
  C      -2.127640      1.020846     -0.396692
  O      -3.269922      1.636205     -0.649329
  C      -0.943943      1.742293     -0.209830
  O      -0.994906      3.110535     -0.293553
  C       0.252874      1.104073      0.047874
  H       3.769235     -1.467593      1.719139
  H       4.555327     -0.085371      0.913089
  H       4.095928     -1.526257     -0.032122
  H      -0.873489     -2.113830     -0.000103
  H      -1.919302      3.338326     -0.473194
  H       1.152535      1.688966      0.186066
  O      -6.042709     -1.178203     -1.026823
  H      -5.602469     -2.001295     -1.271534
  H      -6.454372     -1.353732     -0.170808
  O      -6.105182      1.651853     -1.123242
  H      -6.251237      1.761160     -2.071982
  H      -5.814267      2.514886     -0.802907
  O      -5.283277      0.424500      1.578297
  H      -4.407249      0.249869      1.944472
  H      -5.376889      1.382476      1.646506
  O      -4.369518      0.149122     -3.291002
  H      -4.184590     -0.794715     -3.338659
  H      -3.494712      0.552598     -3.286103
32
Coordinates from ORCA-job cu_P2_cplx E -2630.077506540671
  Cu     -4.645065      0.271247     -0.803811
  C       3.816944     -0.875938      0.806252
  O       2.576144     -0.224295      0.545034
  C       1.512891     -1.022667      0.378003
  O       1.607764     -2.237457      0.447676
  C       0.271627     -0.294060      0.113498
  C      -0.904321     -1.034909     -0.061241
  C      -2.108659     -0.391918     -0.311090
  O      -3.267100     -1.026905     -0.484270
  C      -2.133928      1.019135     -0.393178
  O      -3.278396      1.635429     -0.637613
  C      -0.949714      1.741266     -0.216998
  O      -1.002196      3.109608     -0.302927
  C       0.248440      1.102131      0.035483
  H       3.761122     -1.459069      1.726330
  H       4.551324     -0.080982      0.914447
  H       4.093092     -1.527710     -0.023701
  H      -0.876175     -2.116845     -0.000784
  H      -1.926406      3.334055     -0.488359
  H       1.149071      1.687257      0.167445
  O      -6.056957     -1.177536     -1.035670
  H      -5.618683     -2.002857     -1.279884
  H      -6.469345     -1.354647     -0.180210
  O      -6.106282      1.652576     -1.113214
  H      -6.246055      1.769589     -2.061816
  H      -5.807555      2.512143     -0.790657
  O      -5.272365      0.427868      1.586857
  H      -4.394647      0.240001      1.939706
  H      -5.352282      1.386612      1.652445
  O      -4.346100      0.142050     -3.290149
  H      -4.138944     -0.798759     -3.326875
  H      -3.482477      0.570649     -3.274648
32
Coordinates from ORCA-job cu_P2_cplx E -2630.077510730705
  Cu     -4.645835      0.270886     -0.803009
  C       3.816951     -0.875764      0.804696
  O       2.575698     -0.224245      0.544387
  C       1.512631     -1.022608      0.377558
  O       1.607537     -2.237501      0.446571
  C       0.271059     -0.294132      0.113620
  C      -0.904773     -1.035209     -0.060869
  C      -2.109200     -0.392346     -0.310625
  O      -3.267692     -1.027286     -0.483799
  C      -2.134583      1.018683     -0.392522
  O      -3.279323      1.635017     -0.636162
  C      -0.950570      1.741043     -0.216456
  O      -1.003653      3.109352     -0.302150
  C       0.247810      1.101998      0.035514
  H       3.761287     -1.459350      1.724472
  H       4.550989     -0.080482      0.912832
  H       4.092615     -1.527009     -0.025801
  H      -0.876765     -2.116994      0.000323
  H      -1.928060      3.333068     -0.487623
  H       1.148381      1.687258      0.167119
  O      -6.058629     -1.177469     -1.036361
  H      -5.619785     -2.003645     -1.276809
  H      -6.474854     -1.352690     -0.182334
  O      -6.105801      1.652198     -1.114508
  H      -6.247050      1.767759     -2.063081
  H      -5.805046      2.512393     -0.795221
  O      -5.273936      0.430315      1.588071
  H      -4.397817      0.234836      1.940690
  H      -5.345578      1.389732      1.652970
  O      -4.342522      0.139309     -3.290994
  H      -4.125005     -0.799472     -3.320952
  H      -3.483711      0.577420     -3.273472
32
Coordinates from ORCA-job cu_P2_cplx E -2630.077517571728
  Cu     -4.645959      0.270314     -0.802188
  C       3.818176     -0.875514      0.802535
  O       2.575935     -0.224064      0.544412
  C       1.513446     -1.022293      0.377092
  O       1.608563     -2.237455      0.443747
  C       0.271172     -0.293970      0.114714
  C      -0.904291     -1.035464     -0.059825
  C      -2.108957     -0.392926     -0.309594
  O      -3.267484     -1.027800     -0.482989
  C      -2.134284      1.017953     -0.391904
  O      -3.279334      1.634333     -0.634751
  C      -0.950812      1.740837     -0.214910
  O      -1.005170      3.109073     -0.300339
  C       0.247884      1.102079      0.036680
  H       3.762577     -1.461435      1.720774
  H       4.551175     -0.079573      0.912083
  H       4.093397     -1.524370     -0.029967
  H      -0.876643     -2.116912      0.002850
  H      -1.930023      3.331328     -0.485632
  H       1.148269      1.687644      0.168037
  O      -6.061049     -1.176849     -1.036780
  H      -5.621545     -2.004462     -1.271172
  H      -6.484116     -1.349027     -0.185508
  O      -6.103664      1.651737     -1.117882
  H      -6.246671      1.764636     -2.066537
  H      -5.799208      2.513035     -0.804476
  O      -5.277690      0.432253      1.588842
  H      -4.403606      0.229102      1.942133
  H      -5.341952      1.392149      1.654690
  O      -4.341227      0.137164     -3.290123
  H      -4.115498     -0.799779     -3.315311
  H      -3.486641      0.583319     -3.272621
32
Coordinates from ORCA-job cu_P2_cplx E -2630.077514898392
  Cu     -4.645302      0.270110     -0.801935
  C       3.819641     -0.875544      0.800710
  O       2.576796     -0.224035      0.544564
  C       1.514495     -1.022147      0.377013
  O       1.609725     -2.237485      0.441897
  C       0.271846     -0.293804      0.115877
  C      -0.903387     -1.035484     -0.059036
  C      -2.108180     -0.393077     -0.308706
  O      -3.266691     -1.027953     -0.482317
  C      -2.133428      1.017667     -0.391338
  O      -3.278572      1.634038     -0.634234
  C      -0.950374      1.740891     -0.213069
  O      -1.005418      3.109081     -0.297934
  C       0.248433      1.102260      0.038468
  H       3.764461     -1.463408      1.717721
  H       4.552134     -0.079284      0.911413
  H       4.094453     -1.522487     -0.033414
  H      -0.875810     -2.116823      0.004012
  H      -1.930458      3.330669     -0.483170
  H       1.148654      1.687919      0.170271
  O      -6.061719     -1.176544     -1.036435
  H      -5.621742     -2.005302     -1.265854
  H      -6.489859     -1.345664     -0.187064
  O      -6.101568      1.651517     -1.121250
  H      -6.246257      1.760538     -2.070103
  H      -5.794665      2.513953     -0.813147
  O      -5.282051      0.433082      1.588051
  H      -4.409889      0.225702      1.943574
  H      -5.342751      1.393109      1.655270
  O      -4.343242      0.136715     -3.288646
  H      -4.114085     -0.799444     -3.312279
  H      -3.490422      0.586298     -3.272832
32
Coordinates from ORCA-job cu_P2_cplx E -2630.077523914081
  Cu     -4.643758      0.270078     -0.801538
  C       3.821589     -0.875437      0.800233
  O       2.578386     -0.223930      0.545304
  C       1.516373     -1.022105      0.376709
  O       1.611857     -2.237613      0.439929
  C       0.273500     -0.293781      0.116408
  C      -0.901636     -1.035652     -0.058775
  C      -2.106483     -0.393119     -0.307876
  O      -3.265141     -1.027916     -0.481234
  C      -2.131617      1.017495     -0.390976
  O      -3.276707      1.633874     -0.634103
  C      -0.948844      1.741113     -0.211832
  O      -1.004250      3.109358     -0.296676
  C       0.249918      1.102362      0.039716
  H       3.766527     -1.465470      1.715932
  H       4.553554     -0.078916      0.912799
  H       4.096758     -1.520324     -0.035443
  H      -0.874005     -2.117031      0.004167
  H      -1.929381      3.330438     -0.482315
  H       1.150146      1.688020      0.171905
  O      -6.061875     -1.175966     -1.036065
  H      -5.621765     -2.006537     -1.258835
  H      -6.496632     -1.340656     -0.189276
  O      -6.098978      1.651243     -1.124387
  H      -6.246471      1.753972     -2.073501
  H      -5.789317      2.515428     -0.823842
  O      -5.288011      0.432519      1.586914
  H      -4.418807      0.220411      1.946809
  H      -5.345710      1.392446      1.657448
  O      -4.349056      0.138278     -3.286270
  H      -4.118155     -0.797456     -3.310688
  H      -3.497241      0.589940     -3.274561
32
Coordinates from ORCA-job cu_P2_cplx E -2630.077560341429
  Cu     -4.641930      0.270202     -0.800930
  C       3.823505     -0.875240      0.799844
  O       2.580265     -0.223707      0.546186
  C       1.518296     -1.022113      0.376206
  O       1.614133     -2.237675      0.437647
  C       0.275385     -0.293851      0.116700
  C      -0.899843     -1.035791     -0.058369
  C      -2.104619     -0.392929     -0.306671
  O      -3.263533     -1.027619     -0.479173
  C      -2.129810      1.017635     -0.390053
  O      -3.274816      1.633978     -0.633725
  C      -0.947146      1.741399     -0.210669
  O      -1.002461      3.109660     -0.295342
  C       0.251517      1.102406      0.040625
  H       3.768787     -1.467491      1.714221
  H       4.555388     -0.078762      0.914469
  H       4.099170     -1.518086     -0.037286
  H      -0.871828     -2.117344      0.003612
  H      -1.927382      3.330736     -0.482042
  H       1.151870      1.687939      0.173014
  O      -6.061612     -1.175426     -1.035358
  H      -5.621645     -2.008292     -1.249873
  H      -6.503748     -1.334106     -0.191271
  O      -6.096281      1.651382     -1.127957
  H      -6.246748      1.745030     -2.077535
  H      -5.782971      2.517446     -0.836834
  O      -5.295189      0.431404      1.584776
  H      -4.430163      0.212677      1.950522
  H      -5.348585      1.391105      1.660727
  O      -4.355650      0.140510     -3.282726
  H      -4.122598     -0.794662     -3.310084
  H      -3.504988      0.594649     -3.276575
32
Coordinates from ORCA-job cu_P2_cplx E -2630.077540230739
  Cu     -4.640202      0.270317     -0.799785
  C       3.824609     -0.874910      0.801851
  O       2.581899     -0.223331      0.547424
  C       1.520134     -1.022117      0.374889
  O       1.616477     -2.237661      0.435183
  C       0.277445     -0.293954      0.115183
  C      -0.898059     -1.035870     -0.059291
  C      -2.102761     -0.392657     -0.306457
  O      -3.261978     -1.027225     -0.477661
  C      -2.128243      1.018014     -0.389369
  O      -3.273291      1.634179     -0.632741
  C      -0.945302      1.741712     -0.211300
  O      -1.000080      3.110110     -0.296070
  C       0.253307      1.102395      0.039325
  H       3.769213     -1.468525      1.715417
  H       4.556571     -0.078723      0.918775
  H       4.101857     -1.516636     -0.035710
  H      -0.869565     -2.117713      0.001571
  H      -1.924625      3.331575     -0.484113
  H       1.153909      1.687764      0.171252
  O      -6.060749     -1.174938     -1.035855
  H      -5.621215     -2.010246     -1.241797
  H      -6.510534     -1.327338     -0.194793
  O      -6.094755      1.651791     -1.128096
  H      -6.248696      1.736686     -2.077918
  H      -5.777515      2.519323     -0.845896
  O      -5.300968      0.429875      1.584070
  H      -4.439841      0.204468      1.954891
  H      -5.349621      1.389340      1.664912
  O      -4.362288      0.142973     -3.280915
  H      -4.128201     -0.791880     -3.310765
  H      -3.512165      0.598264     -3.280131
32
Coordinates from ORCA-job cu_P2_cplx E -2630.077541795584
  Cu     -4.639304      0.270325     -0.798153
  C       3.825049     -0.874137      0.803759
  O       2.582697     -0.222842      0.549009
  C       1.521220     -1.022161      0.373582
  O       1.618218     -2.237587      0.432516
  C       0.278773     -0.294117      0.113584
  C      -0.897161     -1.035882     -0.059373
  C      -2.101790     -0.392405     -0.305671
  O      -3.261399     -1.026854     -0.474917
  C      -2.127566      1.018385     -0.388447
  O      -3.272739      1.634303     -0.631333
  C      -0.944055      1.741695     -0.212901
  O      -0.998065      3.110118     -0.298198
  C       0.254606      1.102216      0.036934
  H       3.769441     -1.469193      1.716417
  H       4.557003     -0.078180      0.922955
  H       4.103903     -1.514506     -0.034294
  H      -0.868307     -2.117886      0.000878
  H      -1.922253      3.332102     -0.487186
  H       1.155525      1.687419      0.167490
  O      -6.060027     -1.174159     -1.037095
  H      -5.621355     -2.012073     -1.233779
  H      -6.518418     -1.319945     -0.199567
  O      -6.094111      1.653019     -1.127240
  H      -6.251028      1.729171     -2.077344
  H      -5.771539      2.521333     -0.853946
  O      -5.305595      0.428261      1.583691
  H      -4.448593      0.193645      1.958240
  H      -5.346788      1.387498      1.670981
  O      -4.365588      0.144891     -3.278991
  H      -4.129609     -0.789306     -3.312762
  H      -3.516376      0.601918     -3.282759
32
Coordinates from ORCA-job cu_P2_cplx E -2630.077614158561
  Cu     -4.638706      0.270111     -0.795925
  C       3.825206     -0.873321      0.805628
  O       2.583131     -0.222195      0.550508
  C       1.522208     -1.021945      0.371790
  O       1.620002     -2.237264      0.428847
  C       0.279818     -0.294039      0.111777
  C      -0.896496     -1.035681     -0.059064
  C      -2.101278     -0.392284     -0.304566
  O      -3.261155     -1.026713     -0.471674
  C      -2.127321      1.018681     -0.387299
  O      -3.272836      1.634210     -0.629015
  C      -0.943140      1.741539     -0.214977
  O      -0.996492      3.110008     -0.300942
  C       0.255749      1.102156      0.033906
  H       3.769083     -1.469735      1.717352
  H       4.557006     -0.077580      0.927062
  H       4.105629     -1.512389     -0.032900
  H      -0.867429     -2.117678      0.001357
  H      -1.920474      3.332601     -0.489932
  H       1.156919      1.687321      0.162487
  O      -6.058930     -1.172920     -1.039493
  H      -5.621580     -2.014235     -1.223745
  H      -6.528746     -1.309746     -0.206875
  O      -6.093811      1.654461     -1.125031
  H      -6.255197      1.720784     -2.075077
  H      -5.764334      2.523570     -0.862672
  O      -5.310689      0.427114      1.584391
  H      -4.458492      0.179584      1.961763
  H      -5.340007      1.386217      1.677641
  O      -4.366655      0.145952     -3.278924
  H      -4.127231     -0.787158     -3.314313
  H      -3.518983      0.605637     -3.286007
32
Coordinates from ORCA-job cu_P2_cplx E -2630.077553797803
  Cu     -4.639027      0.269784     -0.793211
  C       3.825148     -0.872078      0.806639
  O       2.582690     -0.221509      0.552219
  C       1.522601     -1.021681      0.370554
  O       1.621291     -2.236910      0.425415
  C       0.280003     -0.293949      0.110842
  C      -0.896739     -1.035388     -0.057095
  C      -2.101796     -0.392358     -0.302395
  O      -3.261941     -1.026796     -0.467127
  C      -2.127798      1.018665     -0.386081
  O      -3.273690      1.633941     -0.626314
  C      -0.942846      1.740975     -0.217671
  O      -0.995702      3.109341     -0.305417
  C       0.256399      1.101988      0.030437
  H       3.769121     -1.470114      1.717192
  H       4.556280     -0.076129      0.929944
  H       4.106626     -1.509345     -0.032790
  H      -0.867985     -2.117148      0.005160
  H      -1.919866      3.332292     -0.492799
  H       1.157820      1.687211      0.156121
  O      -6.058128     -1.171136     -1.043278
  H      -5.622632     -2.016025     -1.214393
  H      -6.541179     -1.298956     -0.216863
  O      -6.094118      1.656687     -1.121856
  H      -6.260807      1.714023     -2.071637
  H      -5.756577      2.526106     -0.871014
  O      -5.313962      0.426118      1.584675
  H      -4.467037      0.162884      1.963307
  H      -5.328713      1.384895      1.685287
  O      -4.363837      0.146408     -3.278191
  H      -4.121037     -0.785565     -3.316460
  H      -3.517792      0.608836     -3.287121
32
Coordinates from ORCA-job cu_P2_cplx E -2630.077563557189
  Cu     -4.640291      0.269704     -0.792437
  C       3.824641     -0.871592      0.805969
  O       2.581538     -0.221295      0.552316
  C       1.521559     -1.021345      0.372313
  O       1.620004     -2.236628      0.428082
  C       0.278700     -0.293586      0.112393
  C      -0.898081     -1.034915     -0.053936
  C      -2.103345     -0.392542     -0.300790
  O      -3.263258     -1.027208     -0.465347
  C      -2.128967      1.018375     -0.386077
  O      -3.275056      1.633782     -0.625725
  C      -0.943713      1.740462     -0.219494
  O      -0.996731      3.108598     -0.309175
  C       0.255759      1.102070      0.029253
  H       3.769343     -1.468015      1.717517
  H       4.555611     -0.075219      0.926743
  H       4.104591     -1.510153     -0.032889
  H      -0.870137     -2.116210      0.011294
  H      -1.921532      3.331423     -0.493613
  H       1.157102      1.687550      0.153221
  O      -6.057341     -1.169907     -1.048627
  H      -5.622880     -2.015182     -1.219892
  H      -6.543417     -1.298489     -0.223929
  O      -6.096304      1.657867     -1.115978
  H      -6.265411      1.718640     -2.065147
  H      -5.757845      2.526615     -0.863655
  O      -5.309073      0.425725      1.585020
  H      -4.460789      0.161521      1.959939
  H      -5.322227      1.384581      1.685002
  O      -4.357733      0.146116     -3.280381
  H      -4.121827     -0.787503     -3.320085
  H      -3.508120      0.601823     -3.285808
32
Coordinates from ORCA-job cu_P2_cplx E -2630.077562495825
  Cu     -4.640475      0.269611     -0.791537
  C       3.825455     -0.871327      0.802479
  O       2.581577     -0.221024      0.550829
  C       1.521457     -1.020914      0.373623
  O       1.619677     -2.236332      0.430020
  C       0.278068     -0.293269      0.114811
  C      -0.898579     -1.034767     -0.050698
  C      -2.104086     -0.392926     -0.298323
  O      -3.263755     -1.027838     -0.462975
  C      -2.129480      1.017837     -0.384707
  O      -3.275754      1.633343     -0.624183
  C      -0.944436      1.740248     -0.218373
  O      -0.997939      3.108271     -0.309069
  C       0.255229      1.102263      0.030590
  H       3.771657     -1.466623      1.714833
  H       4.556388     -0.074601      0.920453
  H       4.103091     -1.510909     -0.036416
  H      -0.870931     -2.115851      0.016200
  H      -1.923288      3.330965     -0.491071
  H       1.156468      1.688023      0.153892
  O      -6.056515     -1.168347     -1.052520
  H      -5.623522     -2.015947     -1.215637
  H      -6.550650     -1.290709     -0.231771
  O      -6.096018      1.658226     -1.114440
  H      -6.271593      1.715457     -2.062539
  H      -5.755184      2.527961     -0.868462
  O      -5.311168      0.426694      1.584656
  H      -4.465534      0.153616      1.959272
  H      -5.314170      1.385762      1.683069
  O      -4.352540      0.145159     -3.283418
  H      -4.115494     -0.788371     -3.317461
  H      -3.503186      0.601383     -3.285048
32
Coordinates from ORCA-job cu_P2_cplx E -2630.077562618033
  Cu     -4.640508      0.269770     -0.790550
  C       3.827123     -0.870905      0.796266
  O       2.582010     -0.220624      0.548356
  C       1.521455     -1.020257      0.375874
  O       1.619301     -2.235821      0.433405
  C       0.277354     -0.292819      0.118989
  C      -0.899176     -1.034607     -0.045709
  C      -2.104910     -0.393264     -0.294048
  O      -3.264401     -1.028404     -0.458877
  C      -2.129868      1.017153     -0.382200
  O      -3.276102      1.633073     -0.621873
  C      -0.945286      1.740235     -0.215496
  O      -0.999578      3.107945     -0.307961
  C       0.254481      1.102594      0.033778
  H       3.776148     -1.465297      1.709342
  H       4.558014     -0.073665      0.910484
  H       4.101164     -1.511263     -0.043207
  H      -0.871742     -2.115530      0.022750
  H      -1.925619      3.330163     -0.487329
  H       1.155709      1.688544      0.156570
  O      -6.056351     -1.166143     -1.056055
  H      -5.625672     -2.017272     -1.206480
  H      -6.561755     -1.278474     -0.240853
  O      -6.094505      1.658969     -1.115651
  H      -6.280093      1.709009     -2.062249
  H      -5.749857      2.530380     -0.881227
  O      -5.314762      0.426923      1.581231
  H      -4.474642      0.140029      1.957583
  H      -5.303874      1.385746      1.681022
  O      -4.345253      0.145114     -3.283717
  H      -4.107715     -0.788534     -3.314788
  H      -3.496322      0.602293     -3.281300
32
Coordinates from ORCA-job cu_P2_cplx E -2630.077570160946
  Cu     -4.639975      0.270249     -0.789941
  C       3.828844     -0.870906      0.790466
  O       2.583119     -0.220288      0.545225
  C       1.521749     -1.019559      0.377882
  O       1.618951     -2.235225      0.437714
  C       0.277260     -0.292202      0.122410
  C      -0.899156     -1.034297     -0.042055
  C      -2.105042     -0.393136     -0.290265
  O      -3.264511     -1.028428     -0.455230
  C      -2.129740      1.017039     -0.379729
  O      -3.275795      1.633303     -0.619925
  C      -0.945618      1.740959     -0.212365
  O      -1.000578      3.108410     -0.305943
  C       0.254121      1.103292      0.036968
  H       3.780236     -1.463879      1.704643
  H       4.560243     -0.073562      0.900943
  H       4.099634     -1.512754     -0.049003
  H      -0.871521     -2.115320      0.026661
  H      -1.927067      3.330113     -0.483968
  H       1.155439      1.689237      0.159918
  O      -6.056572     -1.164006     -1.057826
  H      -5.628615     -2.018999     -1.193714
  H      -6.573014     -1.264295     -0.247998
  O      -6.092792      1.659007     -1.118417
  H      -6.290206      1.699286     -2.062899
  H      -5.744943      2.532804     -0.897750
  O      -5.319353      0.426000      1.577408
  H      -4.486252      0.124061      1.957353
  H      -5.293732      1.384200      1.679628
  O      -4.338818      0.146624     -3.283807
  H      -4.101294     -0.787176     -3.312679
  H      -3.490233      0.604512     -3.277627
32
Coordinates from ORCA-job cu_P2_cplx E -2630.077588306403
  Cu     -4.639735      0.270887     -0.789473
  C       3.829826     -0.870608      0.786106
  O       2.584037     -0.219802      0.541557
  C       1.521821     -1.018872      0.378765
  O       1.618494     -2.234467      0.441732
  C       0.277197     -0.291670      0.123979
  C      -0.899212     -1.034033     -0.040484
  C      -2.105188     -0.392729     -0.287662
  O      -3.264859     -1.028038     -0.452504
  C      -2.129838      1.017270     -0.377562
  O      -3.275647      1.633796     -0.618242
  C      -0.946047      1.741875     -0.209647
  O      -1.001373      3.109127     -0.303679
  C       0.253623      1.103952      0.039152
  H       3.782706     -1.461695      1.701639
  H       4.561870     -0.073404      0.893552
  H       4.098721     -1.514420     -0.052532
  H      -0.871023     -2.115300      0.027217
  H      -1.927967      3.330378     -0.481843
  H       1.155146      1.689677      0.162513
  O      -6.057937     -1.161747     -1.058054
  H      -5.633089     -2.020588     -1.178940
  H      -6.584476     -1.249200     -0.253276
  O      -6.091330      1.659119     -1.121414
  H      -6.300901      1.689227     -2.063657
  H      -5.740123      2.534846     -0.914499
  O      -5.322461      0.423663      1.574116
  H      -4.496115      0.107503      1.956931
  H      -5.282841      1.380942      1.679677
  O      -4.330932      0.149342     -3.283082
  H      -4.096272     -0.785337     -3.312103
  H      -3.481305      0.605370     -3.272205
32
Coordinates from ORCA-job cu_P2_cplx E -2630.077604237765
  Cu     -4.640397      0.271642     -0.789264
  C       3.829250     -0.869987      0.783594
  O       2.584109     -0.219282      0.537065
  C       1.520966     -1.018345      0.378122
  O       1.617168     -2.233616      0.445255
  C       0.276620     -0.291265      0.122867
  C      -0.899894     -1.033730     -0.042078
  C      -2.105882     -0.391901     -0.287127
  O      -3.265879     -1.027072     -0.451730
  C      -2.130710      1.018152     -0.376329
  O      -3.276205      1.634814     -0.617196
  C      -0.947004      1.743123     -0.207993
  O      -1.002371      3.110335     -0.301274
  C       0.252510      1.104605      0.039784
  H       3.782321     -1.458595      1.700788
  H       4.562081     -0.073135      0.889032
  H       4.098121     -1.516355     -0.053123
  H      -0.870857     -2.115432      0.023236
  H      -1.928609      3.331312     -0.481670
  H       1.154329      1.689823      0.164085
  O      -6.061278     -1.159198     -1.056224
  H      -5.639809     -2.021747     -1.161749
  H      -6.596469     -1.233025     -0.255730
  O      -6.091082      1.658826     -1.124647
  H      -6.313033      1.678819     -2.064242
  H      -5.736729      2.536198     -0.930510
  O      -5.322498      0.419633      1.573009
  H      -4.501498      0.089890      1.955773
  H      -5.268445      1.375821      1.681505
  O      -4.318423      0.153196     -3.282307
  H      -4.089266     -0.782900     -3.311788
  H      -3.466368      0.604458     -3.263054
32
Coordinates from ORCA-job cu_P2_cplx E -2630.077625768678
  Cu     -4.641547      0.272500     -0.789178
  C       3.827476     -0.869637      0.783258
  O       2.583697     -0.218912      0.532466
  C       1.519700     -1.017936      0.375702
  O       1.615452     -2.232797      0.446691
  C       0.275889     -0.290773      0.119471
  C      -0.900733     -1.033065     -0.046683
  C      -2.106729     -0.390533     -0.289034
  O      -3.266993     -1.025483     -0.453879
  C      -2.132005      1.019773     -0.375810
  O      -3.277403      1.636369     -0.616255
  C      -0.948161      1.744466     -0.206879
  O      -1.003309      3.111841     -0.297352
  C       0.251367      1.105392      0.039119
  H       3.778977     -1.455467      1.702198
  H       4.561213     -0.073440      0.887919
  H       4.097915     -1.518857     -0.050759
  H      -0.870923     -2.115093      0.015334
  H      -1.928927      3.332878     -0.480431
  H       1.153402      1.690128      0.164594
  O      -6.064371     -1.157387     -1.053935
  H      -5.644794     -2.022612     -1.143354
  H      -6.608244     -1.218286     -0.258127
  O      -6.091928      1.658006     -1.126568
  H      -6.327007      1.668232     -2.063210
  H      -5.733889      2.536469     -0.944918
  O      -5.320323      0.417012      1.574330
  H      -4.504213      0.074525      1.956374
  H      -5.251525      1.372073      1.684907
  O      -4.305414      0.155647     -3.283682
  H      -4.080996     -0.781746     -3.311358
  H      -3.450885      0.601775     -3.254874
32
Coordinates from ORCA-job cu_P2_cplx E -2630.077633991436
  Cu     -4.643563      0.273159     -0.788766
  C       3.824873     -0.868895      0.784049
  O       2.582255     -0.218590      0.528935
  C       1.517860     -1.017813      0.372458
  O       1.613485     -2.232289      0.445567
  C       0.274546     -0.290457      0.115164
  C      -0.902196     -1.032363     -0.051980
  C      -2.108245     -0.389204     -0.291949
  O      -3.268620     -1.023938     -0.456841
  C      -2.133925      1.021489     -0.376155
  O      -3.279411      1.637860     -0.615606
  C      -0.949646      1.745328     -0.207127
  O      -1.004329      3.113124     -0.294652
  C       0.249973      1.105858      0.037401
  H       3.774216     -1.452861      1.704029
  H       4.558977     -0.073070      0.889308
  H       4.097774     -1.519869     -0.047721
  H      -0.872146     -2.114533      0.007849
  H      -1.929341      3.334536     -0.480067
  H       1.152003      1.690273      0.163649
  O      -6.067446     -1.155749     -1.052534
  H      -5.649028     -2.022927     -1.125632
  H      -6.621277     -1.205188     -0.262800
  O      -6.093566      1.657701     -1.127232
  H      -6.340439      1.658824     -2.060899
  H      -5.730734      2.536654     -0.957668
  O      -5.316214      0.415301      1.577911
  H      -4.504051      0.059759      1.956709
  H      -5.231971      1.368892      1.691162
  O      -4.290832      0.156828     -3.285068
  H      -4.069709     -0.781283     -3.309699
  H      -3.434502      0.598507     -3.245717
32
Coordinates from ORCA-job cu_P2_cplx E -2630.077645521066
  Cu     -4.645401      0.273644     -0.788102
  C       3.822775     -0.868422      0.784941
  O       2.580859     -0.218348      0.526864
  C       1.516457     -1.017599      0.369319
  O       1.612048     -2.231905      0.442490
  C       0.273363     -0.289962      0.111632
  C      -0.903472     -1.031553     -0.055867
  C      -2.109660     -0.388105     -0.294359
  O      -3.269978     -1.022817     -0.459154
  C      -2.135622      1.022945     -0.376715
  O      -3.281396      1.639017     -0.614991
  C      -0.950924      1.745852     -0.207794
  O      -1.005272      3.114068     -0.292682
  C       0.248975      1.106396      0.035485
  H       3.770080     -1.451620      1.705232
  H       4.556850     -0.072759      0.891336
  H       4.097729     -1.519996     -0.045600
  H      -0.873721     -2.113597      0.003287
  H      -1.930012      3.335913     -0.478709
  H       1.150810      1.690920      0.161875
  O      -6.069069     -1.154441     -1.052680
  H      -5.651264     -2.023023     -1.109537
  H      -6.634224     -1.193896     -0.270409
  O      -6.094799      1.657838     -1.127000
  H      -6.352200      1.650186     -2.057856
  H      -5.726734      2.537003     -0.970091
  O      -5.312972      0.414942      1.582135
  H      -4.504939      0.046462      1.957685
  H      -5.213857      1.366836      1.698668
  O      -4.278837      0.156821     -3.286874
  H      -4.059166     -0.781630     -3.307499
  H      -3.421655      0.595892     -3.238952
32
Coordinates from ORCA-job cu_P2_cplx E -2630.077662477091
  Cu     -4.647249      0.274108     -0.787471
  C       3.820925     -0.868276      0.785928
  O       2.579034     -0.218317      0.526902
  C       1.515145     -1.017503      0.366545
  O       1.610847     -2.231957      0.437031
  C       0.271979     -0.289391      0.109234
  C      -0.904857     -1.030531     -0.058277
  C      -2.111234     -0.387119     -0.296574
  O      -3.271220     -1.022011     -0.461266
  C      -2.137310      1.024236     -0.377693
  O      -3.283576      1.640000     -0.614567
  C      -0.952099      1.745906     -0.209077
  O      -1.006070      3.114675     -0.291825
  C       0.248199      1.106819      0.033642
  H       3.766543     -1.452097      1.705633
  H       4.554511     -0.072447      0.893959
  H       4.097174     -1.518971     -0.044763
  H      -0.876227     -2.112120      0.002069
  H      -1.930889      3.337226     -0.476524
  H       1.149526      1.691945      0.159534
  O      -6.068794     -1.153919     -1.054445
  H      -5.650120     -2.022864     -1.095677
  H      -6.646325     -1.186225     -0.280985
  O      -6.095939      1.658608     -1.126093
  H      -6.361275      1.642447     -2.054671
  H      -5.722630      2.537884     -0.982062
  O      -5.309628      0.416324      1.587583
  H      -4.505344      0.035443      1.959226
  H      -5.197054      1.366316      1.708799
  O      -4.269558      0.155449     -3.288992
  H      -4.049023     -0.782699     -3.304591
  H      -3.412692      0.594123     -3.234455
32
Coordinates from ORCA-job cu_P2_cplx E -2630.077689600797
  Cu     -4.648271      0.274861     -0.786389
  C       3.820504     -0.868033      0.783105
  O       2.578001     -0.218018      0.525790
  C       1.514264     -1.016972      0.365506
  O       1.609844     -2.231626      0.434386
  C       0.270737     -0.288591      0.109495
  C      -0.906106     -1.029604     -0.057425
  C      -2.112616     -0.386345     -0.295977
  O      -3.272356     -1.021540     -0.460374
  C      -2.138679      1.025087     -0.376936
  O      -3.285253      1.640899     -0.612706
  C      -0.953287      1.746342     -0.208623
  O      -1.007217      3.115363     -0.290651
  C       0.247267      1.107501      0.033751
  H       3.766690     -1.452164      1.702572
  H       4.553844     -0.071957      0.890493
  H       4.095644     -1.518218     -0.048295
  H      -0.878326     -2.110938      0.004234
  H      -1.932367      3.338328     -0.473323
  H       1.148224      1.693200      0.159075
  O      -6.068038     -1.151890     -1.057408
  H      -5.651796     -2.022811     -1.074506
  H      -6.663299     -1.169351     -0.297009
  O      -6.095699      1.659503     -1.126920
  H      -6.374431      1.628729     -2.051197
  H      -5.716663      2.539629     -1.004264
  O      -5.310088      0.416737      1.590526
  H      -4.514182      0.015948      1.959280
  H      -5.176504      1.363299      1.717303
  O      -4.257372      0.155702     -3.290697
  H      -4.036558     -0.782448     -3.299157
  H      -3.401142      0.594442     -3.227579
32
Coordinates from ORCA-job cu_P2_cplx E -2630.077681705680
  Cu     -4.649474      0.276740     -0.784762
  C       3.820405     -0.868953      0.778752
  O       2.575642     -0.218124      0.529560
  C       1.512927     -1.016425      0.366592
  O       1.608428     -2.231989      0.428251
  C       0.268444     -0.287458      0.113913
  C      -0.908520     -1.028203     -0.050784
  C      -2.114845     -0.385615     -0.293561
  O      -3.273967     -1.021594     -0.457547
  C      -2.140387      1.025584     -0.376349
  O      -3.287421      1.642069     -0.610201
  C      -0.954701      1.746382     -0.209404
  O      -1.008309      3.115528     -0.293570
  C       0.246057      1.108213      0.034323
  H       3.769766     -1.456102      1.696447
  H       4.552999     -0.072109      0.884741
  H       4.090780     -1.515906     -0.056708
  H      -0.883312     -2.108880      0.016149
  H      -1.934609      3.339582     -0.469285
  H       1.146281      1.695471      0.157384
  O      -6.060688     -1.151906     -1.067973
  H      -5.643354     -2.022583     -1.053581
  H      -6.683965     -1.157743     -0.330092
  O      -6.095472      1.662350     -1.125592
  H      -6.388858      1.610998     -2.044630
  H      -5.711157      2.543962     -1.033793
  O      -5.308564      0.423063      1.596350
  H      -4.525563     -0.006149      1.960668
  H      -5.147698      1.363809      1.734771
  O      -4.248806      0.153149     -3.293806
  H      -4.019498     -0.783086     -3.286913
  H      -3.397791      0.600988     -3.223271
32
Coordinates from ORCA-job cu_P2_cplx E -2630.077735192837
  Cu     -4.650624      0.278962     -0.781845
  C       3.819913     -0.867204      0.771609
  O       2.576619     -0.216559      0.518683
  C       1.511630     -1.014948      0.365197
  O       1.606133     -2.229753      0.436915
  C       0.267754     -0.286328      0.111789
  C      -0.909779     -1.027126     -0.052323
  C      -2.116131     -0.383341     -0.290203
  O      -3.276268     -1.018843     -0.452560
  C      -2.141923      1.027822     -0.372207
  O      -3.288359      1.644785     -0.605530
  C      -0.956089      1.749403     -0.206599
  O      -1.009523      3.118201     -0.291000
  C       0.244349      1.109832      0.034359
  H       3.770608     -1.448090      1.693585
  H       4.554628     -0.071272      0.871827
  H       4.089354     -1.520673     -0.059231
  H      -0.882584     -2.108757      0.009765
  H      -1.935144      3.341684     -0.470878
  H       1.145717      1.695668      0.157805
  O      -6.065748     -1.144894     -1.066332
  H      -5.663866     -2.020419     -1.000642
  H      -6.717333     -1.108858     -0.353718
  O      -6.094303      1.662111     -1.131922
  H      -6.427080      1.578852     -2.034842
  H      -5.700684      2.543179     -1.086399
  O      -5.312516      0.416444      1.592216
  H      -4.558309     -0.059979      1.958538
  H      -5.100777      1.344933      1.743724
  O      -4.217027      0.160793     -3.291478
  H      -3.991505     -0.776399     -3.280974
  H      -3.366363      0.605837     -3.201249
32
Coordinates from ORCA-job cu_P2_cplx E -2630.077761187418
  Cu     -4.650529      0.281081     -0.780879
  C       3.820201     -0.868711      0.768067
  O       2.576232     -0.216875      0.520046
  C       1.511350     -1.014502      0.364595
  O       1.605625     -2.229696      0.431997
  C       0.267243     -0.285138      0.113619
  C      -0.910464     -1.025443     -0.050048
  C      -2.116653     -0.381651     -0.288963
  O      -3.276554     -1.017234     -0.451888
  C      -2.142290      1.029478     -0.370075
  O      -3.289022      1.646953     -0.601672
  C      -0.956169      1.750601     -0.204678
  O      -1.009290      3.119398     -0.288508
  C       0.244294      1.110898      0.035930
  H       3.772466     -1.452480      1.688180
  H       4.554976     -0.073096      0.869022
  H       4.087323     -1.519467     -0.065594
  H      -0.884051     -2.106895      0.012352
  H      -1.935152      3.343513     -0.466422
  H       1.145580      1.696918      0.158825
  O      -6.061228     -1.145929     -1.067629
  H      -5.660060     -2.019366     -0.973772
  H      -6.730441     -1.096394     -0.372060
  O      -6.093106      1.663492     -1.136586
  H      -6.440490      1.559395     -2.031687
  H      -5.695290      2.543522     -1.120663
  O      -5.315279      0.420545      1.593573
  H      -4.576778     -0.078661      1.961414
  H      -5.081578      1.341592      1.756569
  O      -4.211780      0.160592     -3.292637
  H      -3.978808     -0.774686     -3.274883
  H      -3.365508      0.613308     -3.199465
32
Coordinates from ORCA-job cu_P2_cplx E -2630.077766986416
  Cu     -4.649831      0.283969     -0.779865
  C       3.820918     -0.870268      0.761876
  O       2.576316     -0.216961      0.520703
  C       1.511265     -1.013815      0.363314
  O       1.605602     -2.229255      0.426054
  C       0.266917     -0.283736      0.115919
  C      -0.911023     -1.023627     -0.047726
  C      -2.116878     -0.379589     -0.287185
  O      -3.276818     -1.014894     -0.451324
  C      -2.142578      1.031541     -0.365418
  O      -3.289624      1.649717     -0.594759
  C      -0.956407      1.752685     -0.199438
  O      -1.009401      3.121317     -0.281325
  C       0.243953      1.112326      0.039704
  H       3.776072     -1.458467      1.679255
  H       4.556104     -0.075365      0.864374
  H       4.085210     -1.517147     -0.075714
  H      -0.884276     -2.105304      0.012356
  H      -1.935130      3.345713     -0.459404
  H       1.145691      1.697707      0.162711
  O      -6.057534     -1.147676     -1.064237
  H      -5.659341     -2.017564     -0.931082
  H      -6.746715     -1.076600     -0.390727
  O      -6.090224      1.665304     -1.147506
  H      -6.455419      1.532311     -2.031634
  H      -5.686568      2.542330     -1.170538
  O      -5.321839      0.423771      1.594091
  H      -4.602659     -0.101931      1.962940
  H      -5.061680      1.334906      1.769891
  O      -4.203522      0.162666     -3.293796
  H      -3.964491     -0.770970     -3.268997
  H      -3.361319      0.621971     -3.196434
32
Coordinates from ORCA-job cu_P2_cplx E -2630.077776596682
  Cu     -4.651146      0.285917     -0.779242
  C       3.819716     -0.870531      0.759293
  O       2.575075     -0.216883      0.519514
  C       1.509543     -1.013548      0.363787
  O       1.603530     -2.228965      0.427633
  C       0.265269     -0.283149      0.116778
  C      -0.912904     -1.022873     -0.045842
  C      -2.118600     -0.378667     -0.285749
  O      -3.278865     -1.013684     -0.449291
  C      -2.143829      1.032424     -0.364776
  O      -3.290675      1.650856     -0.594353
  C      -0.957483      1.753580     -0.199574
  O      -1.010168      3.122096     -0.282570
  C       0.242704      1.112934      0.039681
  H       3.776304     -1.457724      1.677469
  H       4.555590     -0.075937      0.859710
  H       4.082296     -1.518537     -0.078032
  H      -0.886209     -2.104606      0.014608
  H      -1.935923      3.346500     -0.460555
  H       1.144835      1.697862      0.161929
  O      -6.056389     -1.147518     -1.064988
  H      -5.660919     -2.015753     -0.913652
  H      -6.756524     -1.067859     -0.404150
  O      -6.091362      1.666406     -1.149722
  H      -6.467984      1.522026     -2.027494
  H      -5.687162      2.542683     -1.188746
  O      -5.318933      0.423606      1.596964
  H      -4.608957     -0.117745      1.961225
  H      -5.040953      1.328732      1.777704
  O      -4.191988      0.165388     -3.295841
  H      -3.951736     -0.767700     -3.265572
  H      -3.351383      0.625732     -3.190068
32
Coordinates from ORCA-job cu_P2_cplx E -2630.077784698270
  Cu     -4.653114      0.288895     -0.778922
  C       3.817358     -0.871401      0.756766
  O       2.572913     -0.217112      0.518277
  C       1.506587     -1.013391      0.364826
  O       1.600102     -2.228616      0.430537
  C       0.262633     -0.282656      0.117917
  C      -0.915939     -1.022039     -0.043613
  C      -2.121415     -0.377655     -0.283896
  O      -3.282131     -1.011930     -0.446884
  C      -2.145726      1.033382     -0.363941
  O      -3.292099      1.652569     -0.594451
  C      -0.959271      1.754592     -0.199513
  O      -1.011779      3.122659     -0.284141
  C       0.240575      1.113414      0.039848
  H       3.775439     -1.457545      1.675646
  H       4.554114     -0.077413      0.855111
  H       4.078126     -1.520729     -0.080077
  H      -0.888818     -2.103895      0.016775
  H      -1.937439      3.347005     -0.462659
  H       1.143635      1.697112      0.161329
  O      -6.055339     -1.149003     -1.063755
  H      -5.659471     -2.014450     -0.897827
  H      -6.763201     -1.064220     -0.412092
  O      -6.093729      1.667043     -1.153936
  H      -6.480457      1.512199     -2.025395
  H      -5.691179      2.543438     -1.205624
  O      -5.312208      0.423871      1.600244
  H      -4.609920     -0.132252      1.957341
  H      -5.016498      1.322990      1.783545
  O      -4.179504      0.169126     -3.298960
  H      -3.935085     -0.762597     -3.262477
  H      -3.342390      0.633674     -3.183921
32
Coordinates from ORCA-job cu_P2_cplx E -2630.077792927390
  Cu     -4.656008      0.291714     -0.777546
  C       3.814043     -0.871772      0.756243
  O       2.570004     -0.217139      0.516584
  C       1.503111     -1.013183      0.365347
  O       1.595990     -2.228306      0.433818
  C       0.259483     -0.282145      0.117448
  C      -0.919519     -1.021308     -0.041943
  C      -2.124999     -0.376819     -0.281914
  O      -3.286398     -1.010292     -0.443076
  C      -2.148243      1.034021     -0.364110
  O      -3.294296      1.654001     -0.594910
  C      -0.961448      1.755275     -0.202394
  O      -1.013943      3.122934     -0.290459
  C       0.238254      1.113839      0.036989
  H       3.772146     -1.455700      1.676606
  H       4.551436     -0.078062      0.852436
  H       4.074108     -1.523380     -0.079076
  H      -0.892440     -2.103101      0.020254
  H      -1.939948      3.346737     -0.468037
  H       1.142228      1.696577      0.156351
  O      -6.055449     -1.148880     -1.062700
  H      -5.660424     -2.012059     -0.883296
  H      -6.770178     -1.058214     -0.419202
  O      -6.096618      1.667223     -1.156234
  H      -6.492460      1.503840     -2.022254
  H      -5.695146      2.543354     -1.219453
  O      -5.303248      0.421079      1.606180
  H      -4.607370     -0.150825      1.950804
  H      -4.987537      1.313344      1.790757
  O      -4.163831      0.175072     -3.301679
  H      -3.916385     -0.755603     -3.260098
  H      -3.330146      0.642841     -3.175359
32
Coordinates from ORCA-job cu_P2_cplx E -2630.077833487766
  Cu     -4.659382      0.294972     -0.775032
  C       3.810335     -0.872161      0.755629
  O       2.566678     -0.217254      0.514871
  C       1.499244     -1.013009      0.365124
  O       1.591419     -2.228068      0.435470
  C       0.255958     -0.281553      0.116524
  C      -0.923691     -1.020252     -0.040114
  C      -2.129120     -0.375412     -0.279585
  O      -3.291190     -1.007979     -0.438371
  C      -2.151212      1.035255     -0.364267
  O      -3.297003      1.656151     -0.594656
  C      -0.963704      1.756080     -0.206182
  O      -1.015760      3.123445     -0.297952
  C       0.235848      1.114326      0.033169
  H       3.767967     -1.454803      1.676817
  H       4.548145     -0.078660      0.850870
  H       4.070263     -1.525075     -0.078727
  H      -0.897091     -2.101882      0.024426
  H      -1.942084      3.347009     -0.474387
  H       1.140684      1.696206      0.149833
  O      -6.055455     -1.148136     -1.061611
  H      -5.662859     -2.007932     -0.861576
  H      -6.781110     -1.047874     -0.432059
  O      -6.099736      1.667027     -1.159336
  H      -6.508031      1.490382     -2.016998
  H      -5.698171      2.541612     -1.241514
  O      -5.293851      0.418611      1.613453
  H      -4.609422     -0.175796      1.942592
  H      -4.950038      1.299977      1.800891
  O      -4.144878      0.181121     -3.303638
  H      -3.890623     -0.747227     -3.253611
  H      -3.317358      0.655962     -3.163975
32
Coordinates from ORCA-job cu_P2_cplx E -2630.077810847519
  Cu     -4.660998      0.295814     -0.773355
  C       3.808172     -0.872493      0.759051
  O       2.565026     -0.217660      0.515577
  C       1.497723     -1.013336      0.364480
  O       1.589659     -2.228394      0.434929
  C       0.254781     -0.281771      0.114565
  C      -0.925236     -1.020162     -0.040889
  C      -2.130656     -0.375045     -0.279609
  O      -3.293002     -1.007054     -0.437090
  C      -2.152266      1.035504     -0.365563
  O      -3.298078      1.656780     -0.595300
  C      -0.964242      1.755778     -0.209725
  O      -1.015919      3.123087     -0.303320
  C       0.235300      1.114005      0.029605
  H       3.763441     -1.455514      1.679843
  H       4.545605     -0.078900      0.856424
  H       4.070250     -1.524941     -0.074941
  H      -0.899159     -2.101612      0.025337
  H      -1.942370      3.346586     -0.479191
  H       1.140394      1.695700      0.144868
  O      -6.056161     -1.148828     -1.060808
  H      -5.660300     -2.007826     -0.864208
  H      -6.780561     -1.052290     -0.429266
  O      -6.101958      1.665824     -1.158583
  H      -6.508152      1.490366     -2.017412
  H      -5.701398      2.541041     -1.238415
  O      -5.287415      0.417453      1.617231
  H      -4.600249     -0.178697      1.936985
  H      -4.939233      1.297761      1.800965
  O      -4.143993      0.183236     -3.303678
  H      -3.883983     -0.743414     -3.250616
  H      -3.320252      0.664067     -3.161812
32
Coordinates from ORCA-job cu_P2_cplx E -2630.077802656076
  Cu     -4.661186      0.296349     -0.770983
  C       3.808028     -0.872733      0.760454
  O       2.565172     -0.217880      0.515649
  C       1.498002     -1.013363      0.363183
  O       1.589753     -2.228525      0.432602
  C       0.255221     -0.281564      0.113139
  C      -0.925163     -1.019565     -0.041445
  C      -2.130512     -0.373944     -0.279112
  O      -3.292974     -1.005883     -0.435539
  C      -2.152071      1.036601     -0.365841
  O      -3.298170      1.657702     -0.594558
  C      -0.963465      1.756032     -0.211296
  O      -1.014162      3.123602     -0.304769
  C       0.236106      1.114166      0.027655
  H       3.761517     -1.456921      1.680422
  H       4.545124     -0.079060      0.860127
  H       4.071710     -1.523942     -0.073993
  H      -0.899956     -2.100923      0.025676
  H      -1.940487      3.347879     -0.480125
  H       1.140951      1.696324      0.142312
  O      -6.054915     -1.148412     -1.060888
  H      -5.661367     -2.005800     -0.853088
  H      -6.786724     -1.045880     -0.438844
  O      -6.101949      1.665079     -1.158346
  H      -6.515374      1.482388     -2.012266
  H      -5.699654      2.538255     -1.250620
  O      -5.287834      0.418133      1.618476
  H      -4.607995     -0.188744      1.933641
  H      -4.926197      1.292622      1.803547
  O      -4.143999      0.183797     -3.303701
  H      -3.878734     -0.741149     -3.245473
  H      -3.323926      0.670422     -3.159919
32
Coordinates from ORCA-job cu_P2_cplx E -2630.077841887042
  Cu     -4.659937      0.295243     -0.770551
  C       3.809350     -0.873036      0.762882
  O       2.566530     -0.218313      0.517463
  C       1.499713     -1.013795      0.363081
  O       1.591619     -2.229072      0.430844
  C       0.256922     -0.282009      0.113069
  C      -0.923504     -1.019841     -0.041757
  C      -2.128777     -0.373931     -0.278987
  O      -3.291146     -1.006104     -0.435363
  C      -2.150602      1.036632     -0.366031
  O      -3.296906      1.657338     -0.594723
  C      -0.961772      1.755604     -0.211344
  O      -1.011783      3.123438     -0.304239
  C       0.237753      1.113674      0.027812
  H       3.761499     -1.459196      1.681510
  H       4.545855     -0.079176      0.865415
  H       4.074671     -1.522261     -0.072612
  H      -0.898786     -2.101173      0.025434
  H      -1.937895      3.348451     -0.479762
  H       1.142159      1.696406      0.142897
  O      -6.054425     -1.149619     -1.060098
  H      -5.657780     -2.008005     -0.862615
  H      -6.781327     -1.052935     -0.431490
  O      -6.101116      1.663909     -1.157369
  H      -6.508260      1.486389     -2.015203
  H      -5.698538      2.537774     -1.242084
  O      -5.290996      0.419480      1.615785
  H      -4.606921     -0.181193      1.933702
  H      -4.936493      1.297215      1.798927
  O      -4.157567      0.182136     -3.303055
  H      -3.888126     -0.741756     -3.248254
  H      -3.338642      0.672792     -3.167208
32
Coordinates from ORCA-job cu_P2_cplx E -2630.077810196303
  Cu     -4.659839      0.295210     -0.770557
  C       3.809869     -0.873192      0.761719
  O       2.566917     -0.218403      0.517134
  C       1.499933     -1.013795      0.363657
  O       1.591718     -2.229055      0.431814
  C       0.257071     -0.281939      0.114103
  C      -0.923441     -1.019661     -0.040276
  C      -2.128610     -0.373601     -0.277617
  O      -3.291035     -1.005905     -0.433815
  C      -2.150450      1.036896     -0.365240
  O      -3.296688      1.657403     -0.594503
  C      -0.961511      1.755776     -0.210664
  O      -1.011066      3.123650     -0.303866
  C       0.237932      1.113688      0.028541
  H       3.762787     -1.459168      1.680515
  H       4.546548     -0.079416      0.863524
  H       4.074463     -1.522596     -0.073881
  H      -0.898911     -2.101016      0.026917
  H      -1.937048      3.349077     -0.479511
  H       1.142299      1.696563      0.143478
  O      -6.054175     -1.150004     -1.059522
  H      -5.658193     -2.008535     -0.861215
  H      -6.781350     -1.052736     -0.431372
  O      -6.100843      1.664230     -1.158307
  H      -6.509116      1.485899     -2.015455
  H      -5.697851      2.537752     -1.244457
  O      -5.292597      0.420503      1.613482
  H      -4.612772     -0.184087      1.933238
  H      -4.933825      1.296245      1.798565
  O      -4.158618      0.181242     -3.303000
  H      -3.885080     -0.741395     -3.249169
  H      -3.341748      0.675432     -3.168182
32
Coordinates from ORCA-job cu_P2_cplx E -2630.077783872329
  Cu     -4.659864      0.294668     -0.770765
  C       3.810220     -0.873220      0.760762
  O       2.567161     -0.218280      0.516961
  C       1.500148     -1.013665      0.363989
  O       1.592011     -2.228904      0.432203
  C       0.257132     -0.281850      0.114877
  C      -0.923304     -1.019669     -0.039232
  C      -2.128488     -0.373641     -0.276466
  O      -3.290908     -1.006187     -0.432386
  C      -2.150529      1.036847     -0.364482
  O      -3.296739      1.656875     -0.594555
  C      -0.961699      1.755937     -0.209819
  O      -1.011026      3.123783     -0.302898
  C       0.237759      1.113739      0.029210
  H       3.763916     -1.458909      1.679797
  H       4.547113     -0.079550      0.861737
  H       4.074016     -1.522990     -0.074846
  H      -0.898688     -2.101068      0.027644
  H      -1.936839      3.349623     -0.478650
  H       1.142032      1.696816      0.144139
  O      -6.054352     -1.150605     -1.057982
  H      -5.658678     -2.009636     -0.861022
  H      -6.779995     -1.053780     -0.427942
  O      -6.099732      1.665062     -1.159395
  H      -6.506915      1.487942     -2.017392
  H      -5.695389      2.538127     -1.244088
  O      -5.294933      0.422056      1.611569
  H      -4.618698     -0.185928      1.932707
  H      -4.932151      1.296003      1.797591
  O      -4.160515      0.178974     -3.303730
  H      -3.880719     -0.741839     -3.251073
  H      -3.346578      0.678332     -3.170384
32
Coordinates from ORCA-job cu_P2_cplx E -2630.077806337779
  Cu     -4.660316      0.294250     -0.770613
  C       3.809947     -0.873367      0.760063
  O       2.566811     -0.218216      0.517042
  C       1.499719     -1.013580      0.364476
  O       1.591556     -2.228827      0.432872
  C       0.256651     -0.281766      0.115562
  C      -0.923844     -1.019603     -0.038005
  C      -2.128986     -0.373578     -0.275266
  O      -3.291439     -1.006191     -0.430736
  C      -2.151078      1.036901     -0.363882
  O      -3.297220      1.656629     -0.594746
  C      -0.962241      1.756116     -0.209618
  O      -1.011273      3.123913     -0.303337
  C       0.237191      1.113743      0.029388
  H       3.764220     -1.459135      1.679079
  H       4.546995     -0.079810      0.860641
  H       4.073093     -1.523185     -0.075710
  H      -0.899260     -2.101010      0.028989
  H      -1.936909      3.350108     -0.479497
  H       1.141514      1.696841      0.143915
  O      -6.055017     -1.151232     -1.056073
  H      -5.659030     -2.010507     -0.860675
  H      -6.778932     -1.055426     -0.423858
  O      -6.099304      1.665389     -1.160793
  H      -6.504548      1.489311     -2.019908
  H      -5.693894      2.538162     -1.243841
  O      -5.295677      0.423901      1.611129
  H      -4.623680     -0.189887      1.930150
  H      -4.925023      1.294698      1.796502
  O      -4.161228      0.176496     -3.305136
  H      -3.871032     -0.740946     -3.250649
  H      -3.352997      0.684874     -3.171386
32
Coordinates from ORCA-job cu_P2_cplx E -2630.077857878571
  Cu     -4.660635      0.294004     -0.770616
  C       3.809480     -0.873250      0.760566
  O       2.566380     -0.218084      0.517250
  C       1.499349     -1.013473      0.364388
  O       1.591226     -2.228715      0.432770
  C       0.256311     -0.281723      0.115225
  C      -0.924157     -1.019660     -0.038380
  C      -2.129368     -0.373788     -0.275633
  O      -3.291823     -1.006377     -0.430933
  C      -2.151404      1.036689     -0.364397
  O      -3.297518      1.656402     -0.595439
  C      -0.962655      1.756037     -0.210181
  O      -1.011887      3.123764     -0.304222
  C       0.236818      1.113788      0.028919
  H       3.763532     -1.458945      1.679615
  H       4.546478     -0.079668      0.861204
  H       4.072754     -1.523172     -0.075071
  H      -0.899480     -2.101045      0.028859
  H      -1.937550      3.349748     -0.480476
  H       1.141208      1.696815      0.143321
  O      -6.055735     -1.150972     -1.055793
  H      -5.659543     -2.010364     -0.861364
  H      -6.779058     -1.055733     -0.422829
  O      -6.099329      1.665413     -1.160588
  H      -6.503528      1.490319     -2.020382
  H      -5.693807      2.538244     -1.242275
  O      -5.294542      0.424098      1.612346
  H      -4.622692     -0.190930      1.929131
  H      -4.921882      1.294191      1.796693
  O      -4.160526      0.175721     -3.305584
  H      -3.867626     -0.740830     -3.249637
  H      -3.354022      0.686561     -3.170409
32
Coordinates from ORCA-job cu_P2_cplx E -2630.077791436620
  Cu     -4.662021      0.292627     -0.771035
  C       3.807356     -0.872901      0.763062
  O       2.564341     -0.217727      0.518885
  C       1.497528     -1.013213      0.364614
  O       1.589523     -2.228470      0.432759
  C       0.254700     -0.281660      0.114277
  C      -0.925661     -1.019977     -0.039441
  C      -2.131176     -0.374775     -0.276889
  O      -3.293643     -1.007213     -0.431395
  C      -2.152724      1.035647     -0.367277
  O      -3.298621      1.655281     -0.599698
  C      -0.964339      1.755608     -0.213314
  O      -1.014397      3.122966     -0.309614
  C       0.235198      1.113923      0.026853
  H       3.760675     -1.458553      1.682107
  H       4.544102     -0.079137      0.864058
  H       4.071055     -1.523007     -0.072240
  H      -0.900584     -2.101271      0.029208
  H      -1.940202      3.347868     -0.486530
  H       1.139937      1.696521      0.140645
  O      -6.059582     -1.150166     -1.052800
  H      -5.661199     -2.010038     -0.865316
  H      -6.778137     -1.058699     -0.413878
  O      -6.099098      1.665148     -1.161466
  H      -6.496251      1.494803     -2.025421
  H      -5.693372      2.538533     -1.235442
  O      -5.289648      0.425910      1.617615
  H      -4.621616     -0.198273      1.923794
  H      -4.903942      1.290755      1.798470
  O      -4.160280      0.171128     -3.307375
  H      -3.845980     -0.738063     -3.244298
  H      -3.367171      0.701490     -3.166838
32
Coordinates from ORCA-job cu_P2_cplx E -2630.077836019284
  Cu     -4.661880      0.292374     -0.771557
  C       3.807129     -0.873025      0.763620
  O       2.564233     -0.217846      0.519043
  C       1.497393     -1.013360      0.364868
  O       1.589326     -2.228598      0.433431
  C       0.254663     -0.281784      0.114160
  C      -0.925702     -1.020114     -0.039681
  C      -2.131117     -0.374851     -0.277394
  O      -3.293623     -1.007267     -0.432113
  C      -2.152579      1.035476     -0.367981
  O      -3.298395      1.655155     -0.600899
  C      -0.964205      1.755408     -0.213807
  O      -1.014260      3.122740     -0.310361
  C       0.235245      1.113786      0.026775
  H       3.760367     -1.458091      1.683042
  H       4.544040     -0.079356      0.864161
  H       4.070782     -1.523677     -0.071279
  H      -0.900633     -2.101410      0.029003
  H      -1.940031      3.347458     -0.487727
  H       1.140007      1.696298      0.140721
  O      -6.060018     -1.150416     -1.052257
  H      -5.660754     -2.010249     -0.866421
  H      -6.777376     -1.059927     -0.411875
  O      -6.099090      1.664527     -1.161858
  H      -6.495502      1.494579     -2.026249
  H      -5.694312      2.538426     -1.234645
  O      -5.289100      0.427682      1.617890
  H      -4.624443     -0.199870      1.924357
  H      -4.899141      1.290543      1.798924
  O      -4.162403      0.169169     -3.308278
  H      -3.838884     -0.736630     -3.241886
  H      -3.374967      0.707916     -3.167652
32
Coordinates from ORCA-job cu_P2_cplx E -2630.077823251152
  Cu     -4.662955      0.291637     -0.771784
  C       3.805504     -0.873239      0.765219
  O       2.562825     -0.217936      0.519736
  C       1.496004     -1.013438      0.365253
  O       1.587855     -2.228653      0.434376
  C       0.253448     -0.281901      0.113628
  C      -0.926989     -1.020316     -0.039578
  C      -2.132414     -0.375208     -0.277523
  O      -3.295063     -1.007564     -0.431301
  C      -2.153502      1.034988     -0.369981
  O      -3.299113      1.654560     -0.604163
  C      -0.965110      1.755048     -0.216609
  O      -1.015155      3.122206     -0.315211
  C       0.234247      1.113634      0.024900
  H       3.758236     -1.457632      1.685051
  H       4.542539     -0.079661      0.865447
  H       4.069295     -1.524605     -0.069084
  H      -0.901971     -2.101545      0.030379
  H      -1.940915      3.346613     -0.493007
  H       1.139212      1.695970      0.138122
  O      -6.062127     -1.150554     -1.049564
  H      -5.660991     -2.010535     -0.868494
  H      -6.776013     -1.062895     -0.404978
  O      -6.099515      1.663695     -1.163295
  H      -6.491780      1.495934     -2.029984
  H      -5.695560      2.538318     -1.231659
  O      -5.285884      0.430202      1.620778
  H      -4.628254     -0.207551      1.921046
  H      -4.882174      1.286851      1.800558
  O      -4.162629      0.165080     -3.309820
  H      -3.815730     -0.731534     -3.235711
  H      -3.390553      0.725096     -3.166668
32
Coordinates from ORCA-job cu_P2_cplx E -2630.077827343278
  Cu     -4.663851      0.291034     -0.771888
  C       3.804154     -0.873615      0.766393
  O       2.561644     -0.218220      0.520237
  C       1.494816     -1.013698      0.365467
  O       1.586570     -2.228903      0.434950
  C       0.252422     -0.282150      0.113158
  C      -0.928125     -1.020549     -0.039438
  C      -2.133481     -0.375471     -0.277615
  O      -3.296276     -1.007764     -0.430542
  C      -2.154261      1.034589     -0.371657
  O      -3.299718      1.654063     -0.606850
  C      -0.965795      1.754659     -0.219001
  O      -1.015660      3.121691     -0.319223
  C       0.233452      1.113347      0.023234
  H       3.756502     -1.457613      1.686466
  H       4.541261     -0.080097      0.866514
  H       4.068112     -1.525407     -0.067520
  H      -0.903237     -2.101725      0.031542
  H      -1.941358      3.345962     -0.497432
  H       1.138582      1.695565      0.135827
  O      -6.063678     -1.151066     -1.046869
  H      -5.660717     -2.010938     -0.869358
  H      -6.774829     -1.065754     -0.398996
  O      -6.099945      1.662649     -1.165306
  H      -6.488604      1.495832     -2.033820
  H      -5.696994      2.537940     -1.230638
  O      -5.283728      0.433139      1.623161
  H      -4.633372     -0.214222      1.918413
  H      -4.867004      1.283656      1.801839
  O      -4.162884      0.160898     -3.310982
  H      -3.792002     -0.725394     -3.227572
  H      -3.407227      0.742629     -3.166416
32
Coordinates from ORCA-job cu_P2_cplx E -2630.077777341664
  Cu     -4.664935      0.290515     -0.771883
  C       3.802888     -0.873901      0.766970
  O       2.560464     -0.218522      0.520332
  C       1.493576     -1.014005      0.365876
  O       1.585192     -2.229180      0.436157
  C       0.251294     -0.282465      0.112915
  C      -0.929411     -1.020848     -0.038623
  C      -2.134689     -0.375734     -0.277097
  O      -3.297684     -1.007963     -0.428879
  C      -2.155123      1.034173     -0.373223
  O      -3.300392      1.653532     -0.609569
  C      -0.966506      1.754238     -0.221622
  O      -1.016074      3.121151     -0.323764
  C       0.232607      1.112963      0.021378
  H       3.755161     -1.457245      1.687469
  H       4.540094     -0.080401      0.866548
  H       4.066775     -1.526325     -0.066478
  H      -0.904737     -2.101960      0.033648
  H      -1.941725      3.345384     -0.502273
  H       1.137895      1.695103      0.133111
  O      -6.065339     -1.151313     -1.044335
  H      -5.661239     -2.011293     -0.869886
  H      -6.774185     -1.067755     -0.393706
  O      -6.100607      1.661669     -1.167491
  H      -6.486254      1.495501     -2.037475
  H      -5.698660      2.537599     -1.230358
  O      -5.281839      0.435550      1.625180
  H      -4.639590     -0.221890      1.915816
  H      -4.851766      1.279417      1.803529
  O      -4.161207      0.157093     -3.311539
  H      -3.766675     -0.718069     -3.218865
  H      -3.422540      0.760043     -3.165783
32
Coordinates from ORCA-job cu_P2_cplx E -2630.077860273585
  Cu     -4.665748      0.290982     -0.771764
  C       3.803148     -0.874730      0.764275
  O       2.560435     -0.220020      0.518115
  C       1.493119     -1.015561      0.367047
  O       1.584267     -2.230637      0.439890
  C       0.250721     -0.283918      0.114045
  C      -0.930475     -1.021685     -0.034462
  C      -2.135129     -0.375604     -0.274156
  O      -3.298544     -1.007923     -0.424325
  C      -2.155302      1.034022     -0.373926
  O      -3.300459      1.653485     -0.610815
  C      -0.965743      1.753161     -0.224887
  O      -1.013627      3.120345     -0.329348
  C       0.232913      1.111288      0.019060
  H       3.756761     -1.456637      1.685748
  H       4.540588     -0.081104      0.861858
  H       4.066322     -1.528098     -0.068724
  H      -0.906966     -2.102713      0.039797
  H      -1.939213      3.345632     -0.507263
  H       1.138062      1.693888      0.129312
  O      -6.064677     -1.152065     -1.043570
  H      -5.661402     -2.012615     -0.869690
  H      -6.773738     -1.067418     -0.393081
  O      -6.103714      1.659071     -1.171402
  H      -6.489990      1.488924     -2.040392
  H      -5.705646      2.536708     -1.236525
  O      -5.284910      0.435921      1.622378
  H      -4.651534     -0.227909      1.919147
  H      -4.848460      1.275655      1.806846
  O      -4.155276      0.156809     -3.307011
  H      -3.735893     -0.705038     -3.202348
  H      -3.435121      0.782847     -3.167750
32
Coordinates from ORCA-job cu_P2_cplx E -2630.077851101274
  Cu     -4.665463      0.290531     -0.772095
  C       3.804151     -0.875812      0.761814
  O       2.561453     -0.221222      0.515690
  C       1.493882     -1.016729      0.366839
  O       1.584922     -2.231728      0.441126
  C       0.251332     -0.285205      0.114139
  C      -0.930174     -1.022534     -0.033115
  C      -2.134502     -0.376126     -0.273651
  O      -3.297902     -1.008711     -0.423819
  C      -2.154871      1.033435     -0.374077
  O      -3.300225      1.652861     -0.610240
  C      -0.964843      1.751964     -0.225780
  O      -1.011722      3.119314     -0.330156
  C       0.233683      1.109797      0.017919
  H       3.758350     -1.456777      1.683910
  H       4.541804     -0.082250      0.858168
  H       4.066935     -1.529968     -0.070760
  H      -0.907064     -2.103547      0.041329
  H      -1.937010      3.345459     -0.508259
  H       1.138703      1.692773      0.127825
  O      -6.063732     -1.153739     -1.042222
  H      -5.661231     -2.014372     -0.867067
  H      -6.773141     -1.066509     -0.392655
  O      -6.104961      1.656305     -1.175504
  H      -6.492584      1.482351     -2.043286
  H      -5.709014      2.534565     -1.243702
  O      -5.290562      0.438106      1.617559
  H      -4.664642     -0.227199      1.926507
  H      -4.854828      1.276778      1.809001
  O      -4.152474      0.153634     -3.301527
  H      -3.707713     -0.693890     -3.184631
  H      -3.451786      0.803509     -3.173198
32
Coordinates from ORCA-job cu_P2_cplx E -2630.077867807765
  Cu     -4.664987      0.289213     -0.772218
  C       3.805066     -0.876398      0.760625
  O       2.562356     -0.221985      0.514099
  C       1.494642     -1.017519      0.366514
  O       1.585559     -2.232454      0.441870
  C       0.252083     -0.286185      0.113559
  C      -0.929413     -1.023555     -0.033691
  C      -2.133714     -0.377329     -0.274608
  O      -3.296962     -1.010094     -0.425470
  C      -2.154454      1.032283     -0.374165
  O      -3.300076      1.651554     -0.609510
  C      -0.964459      1.750889     -0.226086
  O      -1.011291      3.118263     -0.330074
  C       0.234173      1.108713      0.017258
  H       3.759352     -1.456604      1.683187
  H       4.542778     -0.082760      0.856199
  H       4.067710     -1.531261     -0.071389
  H      -0.906187     -2.104610      0.040618
  H      -1.936433      3.344513     -0.508730
  H       1.139077      1.691834      0.127290
  O      -6.063754     -1.155100     -1.040629
  H      -5.662278     -2.015955     -0.864426
  H      -6.772793     -1.065607     -0.390880
  O      -6.104647      1.653988     -1.177815
  H      -6.492972      1.479394     -2.045006
  H      -5.708841      2.532243     -1.246842
  O      -5.295700      0.441441      1.614825
  H      -4.676066     -0.225500      1.932593
  H      -4.858840      1.278848      1.808698
  O      -4.151468      0.148013     -3.299831
  H      -3.681705     -0.683925     -3.169135
  H      -3.470988      0.820716     -3.180754
32
Coordinates from ORCA-job cu_P2_cplx E -2630.077878687088
  Cu     -4.665194      0.288227     -0.771702
  C       3.805599     -0.876716      0.758066
  O       2.562696     -0.222525      0.511794
  C       1.494783     -1.018107      0.366286
  O       1.585607     -2.232940      0.443087
  C       0.252058     -0.287009      0.113419
  C      -0.929393     -1.024560     -0.033580
  C      -2.133760     -0.378778     -0.275195
  O      -3.296802     -1.011582     -0.426916
  C      -2.154790      1.030959     -0.373588
  O      -3.300719      1.650250     -0.607830
  C      -0.964930      1.749775     -0.226002
  O      -1.012135      3.117067     -0.329579
  C       0.233956      1.107803      0.016789
  H       3.760377     -1.456086      1.681137
  H       4.543326     -0.082960      0.852379
  H       4.067587     -1.532352     -0.073518
  H      -0.905949     -2.105523      0.040825
  H      -1.937390      3.343164     -0.507830
  H       1.138844      1.691022      0.126400
  O      -6.063583     -1.156202     -1.039987
  H      -5.664460     -2.016997     -0.858430
  H      -6.775362     -1.062700     -0.393831
  O      -6.104840      1.652428     -1.179249
  H      -6.496523      1.476793     -2.044665
  H      -5.707968      2.529946     -1.251137
  O      -5.299448      0.443336      1.612720
  H      -4.683148     -0.223404      1.937296
  H      -4.863126      1.280758      1.807597
  O      -4.144303      0.143424     -3.298537
  H      -3.656021     -0.675167     -3.152506
  H      -3.480217      0.833721     -3.187633
32
Coordinates from ORCA-job cu_P2_cplx E -2630.077883403674
  Cu     -4.665473      0.287447     -0.770872
  C       3.805604     -0.876440      0.757500
  O       2.562603     -0.222435      0.510961
  C       1.494778     -1.018155      0.365717
  O       1.585737     -2.232928      0.442909
  C       0.251981     -0.287265      0.112709
  C      -0.929232     -1.025172     -0.034841
  C      -2.133837     -0.379886     -0.276501
  O      -3.296718     -1.012660     -0.428909
  C      -2.155106      1.029964     -0.373415
  O      -3.301279      1.649229     -0.606843
  C      -0.965583      1.749200     -0.225757
  O      -1.013557      3.116414     -0.328750
  C       0.233575      1.107569      0.016697
  H       3.760237     -1.455666      1.680649
  H       4.543155     -0.082534      0.851742
  H       4.067697     -1.532230     -0.073902
  H      -0.905355     -2.106109      0.039367
  H      -1.939032      3.342035     -0.506507
  H       1.138452      1.690731      0.126379
  O      -6.063695     -1.156553     -1.040141
  H      -5.666376     -2.017249     -0.854294
  H      -6.778340     -1.060707     -0.397482
  O      -6.104536      1.652439     -1.177974
  H      -6.498487      1.477605     -2.042483
  H      -5.705883      2.529067     -1.250844
  O      -5.300479      0.443464      1.613208
  H      -4.681270     -0.220366      1.938164
  H      -4.866744      1.282874      1.805101
  O      -4.140077      0.141294     -3.299560
  H      -3.648251     -0.673543     -3.144600
  H      -3.479741      0.835632     -3.191348
32
Coordinates from ORCA-job cu_P2_cplx E -2630.077883878746
  Cu     -4.666132      0.285709     -0.769210
  C       3.805318     -0.875923      0.757333
  O       2.562199     -0.222219      0.510047
  C       1.494673     -1.018224      0.364308
  O       1.586022     -2.232912      0.441553
  C       0.251750     -0.287722      0.110951
  C      -0.928847     -1.026368     -0.038342
  C      -2.134004     -0.382104     -0.280008
  O      -3.296445     -1.014983     -0.433984
  C      -2.155859      1.028031     -0.373441
  O      -3.302504      1.647262     -0.605111
  C      -0.967074      1.748090     -0.225004
  O      -1.016795      3.115177     -0.326304
  C       0.232631      1.107248      0.016841
  H       3.759346     -1.455431      1.680249
  H       4.542400     -0.081723      0.852295
  H       4.068133     -1.531489     -0.073978
  H      -0.903942     -2.107273      0.034898
  H      -1.942760      3.339831     -0.502756
  H       1.137429      1.690327      0.127167
  O      -6.063682     -1.157796     -1.040894
  H      -5.668520     -2.018263     -0.849677
  H      -6.782968     -1.060233     -0.403757
  O      -6.104172      1.653007     -1.173617
  H      -6.500313      1.482347     -2.037914
  H      -5.701978      2.528194     -1.244628
  O      -5.300805      0.442775      1.614058
  H      -4.668702     -0.208573      1.939422
  H      -4.880368      1.290625      1.798169
  O      -4.133501      0.137553     -3.301478
  H      -3.641212     -0.674041     -3.131677
  H      -3.474545      0.834165     -3.199432
32
Coordinates from ORCA-job cu_P2_cplx E -2630.077885112449
  Cu     -4.666112      0.285099     -0.768762
  C       3.805046     -0.875886      0.759023
  O       2.562125     -0.222208      0.510705
  C       1.494794     -1.018314      0.364037
  O       1.586268     -2.232999      0.441148
  C       0.251930     -0.287873      0.110100
  C      -0.928506     -1.026691     -0.039563
  C      -2.133751     -0.382498     -0.281035
  O      -3.296171     -1.015504     -0.434899
  C      -2.155693      1.027628     -0.374323
  O      -3.302343      1.646809     -0.605932
  C      -0.966967      1.747848     -0.225838
  O      -1.016977      3.114908     -0.327107
  C       0.232743      1.107159      0.016206
  H       3.758314     -1.455491      1.681853
  H       4.542017     -0.081679      0.854749
  H       4.068647     -1.531341     -0.072140
  H      -0.903421     -2.107612      0.033515
  H      -1.943067      3.339312     -0.503233
  H       1.137508      1.690212      0.126810
  O      -6.063831     -1.158252     -1.040875
  H      -5.668215     -2.018935     -0.851645
  H      -6.782701     -1.062374     -0.403013
  O      -6.104251      1.652938     -1.171342
  H      -6.498674      1.484575     -2.036862
  H      -5.702189      2.528419     -1.239301
  O      -5.299670      0.441631      1.614399
  H      -4.661874     -0.204598      1.938809
  H      -4.885041      1.292814      1.796111
  O      -4.135632      0.137627     -3.302179
  H      -3.643366     -0.673752     -3.131004
  H      -3.476170      0.834090     -3.202336
32
Coordinates from ORCA-job cu_P2_cplx E -2630.077885354625
  Cu     -4.666126      0.284192     -0.768172
  C       3.804571     -0.875989      0.761277
  O       2.561927     -0.222250      0.511971
  C       1.494891     -1.018505      0.363555
  O       1.586659     -2.233221      0.439722
  C       0.252041     -0.288153      0.109118
  C      -0.928145     -1.027141     -0.041354
  C      -2.133441     -0.382929     -0.282717
  O      -3.295711     -1.016338     -0.436599
  C      -2.155600      1.027160     -0.375619
  O      -3.302201      1.646394     -0.607055
  C      -0.966947      1.747505     -0.226461
  O      -1.017376      3.114571     -0.327357
  C       0.232710      1.107007      0.015976
  H       3.756944     -1.456085      1.683755
  H       4.541446     -0.081851      0.858332
  H       4.069161     -1.530944     -0.069981
  H      -0.902803     -2.108179      0.031038
  H      -1.943604      3.338752     -0.503102
  H       1.137389      1.690060      0.127423
  O      -6.063823     -1.159511     -1.040693
  H      -5.667056     -2.020008     -0.853018
  H      -6.782716     -1.065794     -0.402561
  O      -6.104202      1.652914     -1.167840
  H      -6.495861      1.486873     -2.035058
  H      -5.702332      2.528789     -1.232174
  O      -5.296979      0.439124      1.613940
  H      -4.648064     -0.196114      1.938017
  H      -4.895964      1.297300      1.793320
  O      -4.138895      0.138246     -3.302911
  H      -3.648159     -0.673876     -3.130815
  H      -3.476965      0.833062     -3.207876
32
Coordinates from ORCA-job cu_P2_cplx E -2630.077895932326
  Cu     -4.666604      0.283962     -0.768068
  C       3.803515     -0.876138      0.763425
  O       2.561143     -0.222254      0.513234
  C       1.494235     -1.018482      0.363496
  O       1.586005     -2.233250      0.439132
  C       0.251542     -0.288050      0.108565
  C      -0.928632     -1.026962     -0.042148
  C      -2.133879     -0.382530     -0.283170
  O      -3.296158     -1.016187     -0.436512
  C      -2.155918      1.027445     -0.376975
  O      -3.302248      1.646755     -0.609067
  C      -0.967147      1.747722     -0.227463
  O      -1.017510      3.114741     -0.328845
  C       0.232331      1.107189      0.015450
  H       3.755291     -1.456095      1.685982
  H       4.540465     -0.082110      0.860914
  H       4.068587     -1.531244     -0.067557
  H      -0.903364     -2.108032      0.030042
  H      -1.943740      3.338859     -0.504655
  H       1.137053      1.690133      0.127305
  O      -6.064555     -1.160038     -1.039310
  H      -5.666534     -2.019912     -0.851257
  H      -6.783092     -1.066802     -0.400736
  O      -6.104115      1.652904     -1.166778
  H      -6.494405      1.486330     -2.034550
  H      -5.702719      2.529002     -1.231027
  O      -5.292430      0.437555      1.614668
  H      -4.641264     -0.197312      1.934912
  H      -4.892172      1.296029      1.794291
  O      -4.140838      0.138921     -3.304489
  H      -3.647757     -0.672145     -3.133895
  H      -3.480318      0.835058     -3.208836
32
Coordinates from ORCA-job cu_P2_cplx E -2630.077889788916
  Cu     -4.666570      0.283964     -0.768382
  C       3.803616     -0.876294      0.763368
  O       2.561218     -0.222510      0.513236
  C       1.494225     -1.018675      0.363694
  O       1.585834     -2.233461      0.439350
  C       0.251597     -0.288141      0.108851
  C      -0.928607     -1.026823     -0.042249
  C      -2.133681     -0.382028     -0.283186
  O      -3.295876     -1.015914     -0.436853
  C      -2.155814      1.027901     -0.377169
  O      -3.302000      1.647265     -0.609486
  C      -0.966887      1.747926     -0.226875
  O      -1.016842      3.115054     -0.327808
  C       0.232422      1.107122      0.016139
  H       3.755678     -1.455741      1.686254
  H       4.540685     -0.082275      0.860238
  H       4.068442     -1.531803     -0.067348
  H      -0.903637     -2.107944      0.029510
  H      -1.942960      3.339455     -0.503895
  H       1.137008      1.690165      0.128658
  O      -6.064463     -1.160347     -1.038993
  H      -5.666870     -2.019688     -0.847525
  H      -6.783951     -1.064534     -0.401793
  O      -6.104142      1.652497     -1.166695
  H      -6.496302      1.483347     -2.033147
  H      -5.703391      2.528627     -1.234299
  O      -5.290978      0.436210      1.613052
  H      -4.639292     -0.197283      1.935061
  H      -4.893488      1.295572      1.795004
  O      -4.141308      0.139888     -3.305007
  H      -3.648839     -0.671797     -3.135939
  H      -3.480058      0.835328     -3.209689
32
Coordinates from ORCA-job cu_P2_cplx E -2630.077889718099
  Cu     -4.666667      0.283719     -0.769044
  C       3.803800     -0.876409      0.762060
  O       2.561184     -0.222657      0.512932
  C       1.493988     -1.018718      0.364299
  O       1.585424     -2.233508      0.440145
  C       0.251352     -0.288146      0.109877
  C      -0.928840     -1.026729     -0.042078
  C      -2.133771     -0.381827     -0.283324
  O      -3.295807     -1.015816     -0.438005
  C      -2.156009      1.028095     -0.377006
  O      -3.302052      1.647440     -0.609984
  C      -0.967246      1.748071     -0.225143
  O      -1.017063      3.115259     -0.325307
  C       0.231995      1.107129      0.017967
  H       3.756809     -1.455154      1.685405
  H       4.541079     -0.082408      0.857440
  H       4.067537     -1.532584     -0.068445
  H      -0.904068     -2.107865      0.029262
  H      -1.943006      3.339764     -0.502245
  H       1.136433      1.690301      0.131247
  O      -6.064726     -1.160531     -1.038560
  H      -5.668309     -2.019068     -0.841008
  H      -6.786011     -1.060446     -0.404061
  O      -6.103794      1.652027     -1.167717
  H      -6.499201      1.479706     -2.032093
  H      -5.703122      2.527794     -1.240079
  O      -5.289398      0.436452      1.611954
  H      -4.639944     -0.198777      1.935045
  H      -4.890283      1.294792      1.795363
  O      -4.139613      0.138508     -3.307186
  H      -3.643825     -0.670557     -3.135494
  H      -3.482077      0.837207     -3.210139
32
Coordinates from ORCA-job cu_P2_cplx E -2630.077937981957
  Cu     -4.667028      0.283306     -0.769401
  C       3.803755     -0.876500      0.761083
  O       2.560981     -0.222850      0.512433
  C       1.493675     -1.018881      0.364616
  O       1.585034     -2.233640      0.440871
  C       0.251005     -0.288349      0.110399
  C      -0.929108     -1.026975     -0.042356
  C      -2.133960     -0.382136     -0.284059
  O      -3.295876     -1.016093     -0.439839
  C      -2.156350      1.027840     -0.377052
  O      -3.302377      1.647120     -0.610335
  C      -0.967823      1.747886     -0.223958
  O      -1.017715      3.115124     -0.323227
  C       0.231435      1.106929      0.019227
  H       3.757346     -1.454551      1.684885
  H       4.541134     -0.082471      0.855263
  H       4.066822     -1.533327     -0.069122
  H      -0.904386     -2.108082      0.028761
  H      -1.943552      3.339587     -0.500799
  H       1.135713      1.690235      0.133094
  O      -6.064986     -1.160927     -1.038642
  H      -5.669641     -2.018911     -0.836494
  H      -6.787809     -1.057662     -0.406411
  O      -6.104154      1.651381     -1.168090
  H      -6.502053      1.477677     -2.031027
  H      -5.703581      2.526974     -1.242880
  O      -5.287362      0.436261      1.611621
  H      -4.636437     -0.197141      1.935390
  H      -4.890288      1.295712      1.794397
  O      -4.136620      0.136991     -3.309143
  H      -3.637724     -0.668939     -3.131961
  H      -3.483302      0.839477     -3.211164
32
Coordinates from ORCA-job cu_P2_cplx E -2630.077891397911
  Cu     -4.668336      0.281654     -0.770257
  C       3.803330     -0.876694      0.758115
  O       2.560119     -0.223258      0.511099
  C       1.492551     -1.019323      0.365691
  O       1.583865     -2.233991      0.443158
  C       0.249712     -0.289008      0.111927
  C      -0.929919     -1.028014     -0.043450
  C      -2.134602     -0.383520     -0.286611
  O      -3.296166     -1.017335     -0.445553
  C      -2.157566      1.026603     -0.377551
  O      -3.303624      1.645381     -0.612115
  C      -0.969966      1.747152     -0.220651
  O      -1.020386      3.114551     -0.317109
  C       0.229379      1.106333      0.023008
  H       3.758759     -1.452890      1.683143
  H       4.541090     -0.082636      0.848802
  H       4.064258     -1.535280     -0.071370
  H      -0.905043     -2.109084      0.026917
  H      -1.945906      3.338710     -0.496730
  H       1.133083      1.690091      0.138871
  O      -6.066085     -1.162110     -1.038930
  H      -5.674368     -2.018510     -0.823387
  H      -6.793620     -1.049656     -0.413747
  O      -6.104984      1.649395     -1.169619
  H      -6.509355      1.472471     -2.028852
  H      -5.704279      2.524345     -1.250267
  O      -5.280877      0.436102      1.611974
  H      -4.624191     -0.191524      1.935411
  H      -4.889235      1.298921      1.790604
  O      -4.126845      0.131129     -3.315508
  H      -3.616308     -0.662593     -3.117721
  H      -3.489714      0.847650     -3.213214
32
Coordinates from ORCA-job cu_P2_cplx E -2630.077895417059
  Cu     -4.668640      0.281834     -0.769849
  C       3.802763     -0.876512      0.759846
  O       2.559751     -0.223024      0.511901
  C       1.492401     -1.019176      0.365413
  O       1.583857     -2.233854      0.442608
  C       0.249604     -0.288883      0.111146
  C      -0.930091     -1.027938     -0.043431
  C      -2.134820     -0.383474     -0.286421
  O      -3.296571     -1.017214     -0.444286
  C      -2.157631      1.026631     -0.378204
  O      -3.303715      1.645290     -0.612766
  C      -0.969863      1.747176     -0.222574
  O      -1.020186      3.114574     -0.320045
  C       0.229468      1.106433      0.021249
  H       3.757328     -1.453290      1.684469
  H       4.540348     -0.082462      0.851831
  H       4.064675     -1.534540     -0.069785
  H      -0.905205     -2.108978      0.027540
  H      -1.945746      3.338741     -0.499384
  H       1.133261      1.690181      0.136455
  O      -6.066517     -1.161513     -1.039806
  H      -5.673919     -2.018814     -0.829444
  H      -6.792427     -1.052538     -0.412104
  O      -6.105627      1.649822     -1.168669
  H      -6.507247      1.475392     -2.029706
  H      -5.704939      2.525162     -1.245471
  O      -5.279420      0.435614      1.613636
  H      -4.621605     -0.192346      1.934148
  H      -4.887136      1.298237      1.791719
  O      -4.128282      0.132113     -3.314210
  H      -3.620116     -0.664003     -3.119860
  H      -3.488985      0.846421     -3.209869
32
Coordinates from ORCA-job cu_P2_cplx E -2630.077891993307
  Cu     -4.669551      0.282011     -0.769194
  C       3.801318     -0.876314      0.762871
  O       2.558669     -0.222807      0.513138
  C       1.491633     -1.019095      0.364934
  O       1.583245     -2.233781      0.441817
  C       0.248931     -0.288788      0.109721
  C      -0.930739     -1.027944     -0.044227
  C      -2.135458     -0.383461     -0.287159
  O      -3.297452     -1.017104     -0.443811
  C      -2.158114      1.026591     -0.379873
  O      -3.304227      1.645047     -0.614684
  C      -0.970194      1.747181     -0.225551
  O      -1.020448      3.114565     -0.323975
  C       0.229037      1.106514      0.018806
  H       3.754524     -1.453663      1.687083
  H       4.538676     -0.082272      0.856702
  H       4.064842     -1.533753     -0.066726
  H      -0.905711     -2.108992      0.027104
  H      -1.946029      3.338755     -0.503099
  H       1.132895      1.690220      0.133669
  O      -6.067275     -1.160880     -1.041508
  H      -5.674100     -2.018953     -0.835400
  H      -6.792393     -1.055182     -0.412292
  O      -6.107229      1.649945     -1.166850
  H      -6.506387      1.477855     -2.029525
  H      -5.707002      2.525855     -1.239787
  O      -5.273560      0.433916      1.617119
  H      -4.610874     -0.192163      1.931252
  H      -4.882721      1.297625      1.793011
  O      -4.128377      0.133480     -3.314060
  H      -3.623499     -0.664900     -3.120213
  H      -3.487663      0.845556     -3.203217
32
Coordinates from ORCA-job cu_P2_cplx E -2630.077895573891
  Cu     -4.669712      0.281885     -0.768893
  C       3.800971     -0.876378      0.763835
  O       2.558423     -0.222787      0.513665
  C       1.491592     -1.019090      0.364469
  O       1.583321     -2.233803      0.440777
  C       0.248896     -0.288786      0.109036
  C      -0.930703     -1.028003     -0.044879
  C      -2.135455     -0.383568     -0.287763
  O      -3.297424     -1.017331     -0.444228
  C      -2.158184      1.026484     -0.380393
  O      -3.304375      1.644795     -0.615159
  C      -0.970242      1.747144     -0.226239
  O      -1.020478      3.114544     -0.324518
  C       0.228988      1.106519      0.018090
  H       3.753620     -1.454460      1.687560
  H       4.538163     -0.082339      0.858871
  H       4.065179     -1.533132     -0.066091
  H      -0.905525     -2.109099      0.026207
  H      -1.946050      3.338903     -0.503320
  H       1.132824      1.690248      0.133137
  O      -6.067129     -1.161014     -1.041656
  H      -5.674468     -2.019085     -0.834655
  H      -6.793019     -1.054799     -0.413457
  O      -6.107508      1.649819     -1.166595
  H      -6.506809      1.477386     -2.029134
  H      -5.706919      2.525526     -1.240087
  O      -5.272025      0.433146      1.617921
  H      -4.606997     -0.190911      1.931144
  H      -4.883720      1.298041      1.793625
  O      -4.128396      0.133750     -3.314376
  H      -3.623835     -0.664572     -3.119307
  H      -3.488236      0.846031     -3.201512
32
Coordinates from ORCA-job cu_P2_cplx E -2630.077896560661
  Cu     -4.670473      0.281464     -0.768141
  C       3.800037     -0.876380      0.764856
  O       2.557552     -0.222636      0.514590
  C       1.491079     -1.019004      0.363816
  O       1.583005     -2.233773      0.438929
  C       0.248336     -0.288777      0.108087
  C      -0.931061     -1.028179     -0.045721
  C      -2.135873     -0.383887     -0.288760
  O      -3.297735     -1.017963     -0.444882
  C      -2.158804      1.026118     -0.381526
  O      -3.305146      1.643998     -0.616812
  C      -0.970921      1.747003     -0.227651
  O      -1.021138      3.114383     -0.325974
  C       0.228281      1.106489      0.016959
  H       3.751964     -1.456270      1.687420
  H       4.536902     -0.082308      0.862290
  H       4.065178     -1.531458     -0.066095
  H      -0.905490     -2.109393      0.024915
  H      -1.946639      3.339103     -0.504490
  H       1.132048      1.690279      0.132438
  O      -6.067426     -1.161059     -1.041342
  H      -5.678011     -2.018882     -0.827639
  H      -6.797278     -1.050245     -0.418577
  O      -6.107972      1.649539     -1.167425
  H      -6.510052      1.474056     -2.028060
  H      -5.705584      2.523991     -1.246172
  O      -5.267439      0.431101      1.619800
  H      -4.599825     -0.191718      1.929992
  H      -4.881139      1.296728      1.796381
  O      -4.124346      0.133621     -3.315951
  H      -3.616650     -0.661166     -3.114498
  H      -3.490610      0.850288     -3.194678
32
Coordinates from ORCA-job cu_P2_cplx E -2630.077895197945
  Cu     -4.670931      0.280927     -0.767588
  C       3.799380     -0.876410      0.766044
  O       2.556928     -0.222723      0.515206
  C       1.490693     -1.019150      0.363363
  O       1.582711     -2.233951      0.437906
  C       0.247960     -0.289032      0.107218
  C      -0.931277     -1.028520     -0.047158
  C      -2.136155     -0.384316     -0.290161
  O      -3.297806     -1.018633     -0.446712
  C      -2.159230      1.025679     -0.382649
  O      -3.305615      1.643377     -0.618310
  C      -0.971427      1.746678     -0.228500
  O      -1.021686      3.114039     -0.326709
  C       0.227765      1.106262      0.016387
  H       3.750472     -1.457482      1.687834
  H       4.535852     -0.082202      0.865340
  H       4.065547     -1.530396     -0.065441
  H      -0.905452     -2.109789      0.022863
  H      -1.947146      3.338944     -0.505140
  H       1.131512      1.690040      0.132389
  O      -6.067647     -1.161665     -1.040250
  H      -5.680687     -2.018937     -0.820122
  H      -6.801028     -1.046572     -0.422444
  O      -6.108261      1.648885     -1.167111
  H      -6.513863      1.471209     -2.025691
  H      -5.704591      2.522354     -1.250527
  O      -5.263130      0.429191      1.620445
  H      -4.592312     -0.190577      1.929879
  H      -4.881108      1.296663      1.797409
  O      -4.121155      0.133240     -3.318985
  H      -3.609241     -0.657058     -3.110605
  H      -3.494305      0.854988     -3.192103
32
Coordinates from ORCA-job cu_P2_cplx E -2630.077896760187
  Cu     -4.671610      0.280545     -0.766620
  C       3.798534     -0.876257      0.767344
  O       2.556090     -0.222749      0.515802
  C       1.490101     -1.019244      0.362747
  O       1.582170     -2.234077      0.436730
  C       0.247410     -0.289242      0.106086
  C      -0.931763     -1.028795     -0.048533
  C      -2.136723     -0.384664     -0.291345
  O      -3.298172     -1.019198     -0.448246
  C      -2.159891      1.025286     -0.383943
  O      -3.306293      1.642884     -0.620051
  C      -0.972122      1.746319     -0.229932
  O      -1.022389      3.113598     -0.328646
  C       0.227122      1.106064      0.015284
  H       3.748532     -1.458747      1.688199
  H       4.534467     -0.081809      0.868868
  H       4.066033     -1.528907     -0.064773
  H      -0.905913     -2.110065      0.021442
  H      -1.947892      3.338528     -0.506848
  H       1.130868      1.689818      0.131351
  O      -6.068001     -1.162066     -1.038334
  H      -5.684954     -2.018401     -0.808205
  H      -6.807183     -1.040499     -0.428802
  O      -6.108408      1.648580     -1.166510
  H      -6.520243      1.466955     -2.021270
  H      -5.702644      2.520304     -1.258295
  O      -5.258142      0.426686      1.621166
  H      -4.586654     -0.193027      1.929192
  H      -4.877078      1.294269      1.799793
  O      -4.115066      0.133272     -3.323193
  H      -3.598134     -0.651554     -3.106705
  H      -3.497281      0.861256     -3.187674
32
Coordinates from ORCA-job cu_P2_cplx E -2630.077895644188
  Cu     -4.671497      0.280466     -0.766082
  C       3.798725     -0.875851      0.767580
  O       2.556191     -0.222684      0.515844
  C       1.490299     -1.019358      0.362485
  O       1.582480     -2.234189      0.436337
  C       0.247571     -0.289490      0.105750
  C      -0.931649     -1.029044     -0.048806
  C      -2.136644     -0.384879     -0.291442
  O      -3.298031     -1.019481     -0.448581
  C      -2.159845      1.025041     -0.384210
  O      -3.306244      1.642796     -0.620290
  C      -0.972064      1.745999     -0.230511
  O      -1.022383      3.113209     -0.329889
  C       0.227242      1.105821      0.014832
  H       3.748394     -1.458940      1.688063
  H       4.534329     -0.081151      0.869931
  H       4.066867     -1.527876     -0.064829
  H      -0.905958     -2.110251      0.021480
  H      -1.947986      3.337898     -0.508112
  H       1.131010      1.689577      0.130461
  O      -6.068117     -1.161987     -1.037196
  H      -5.687330     -2.018265     -0.803293
  H      -6.810221     -1.037658     -0.431764
  O      -6.107901      1.648974     -1.165308
  H      -6.522949      1.465796     -2.018202
  H      -5.700927      2.519731     -1.260974
  O      -5.258461      0.425336      1.620397
  H      -4.587692     -0.194264      1.930185
  H      -4.878384      1.293010      1.800661
  O      -4.112377      0.134122     -3.325256
  H      -3.595438     -0.650157     -3.106978
  H      -3.496241      0.862814     -3.186205
32
Coordinates from ORCA-job cu_P2_cplx E -2630.077902428763
  Cu     -4.671267      0.280638     -0.765696
  C       3.798986     -0.875373      0.767386
  O       2.556364     -0.222492      0.515749
  C       1.490541     -1.019372      0.362428
  O       1.582895     -2.234175      0.436318
  C       0.247777     -0.289620      0.105744
  C      -0.931543     -1.029153     -0.048402
  C      -2.136538     -0.384964     -0.290992
  O      -3.298015     -1.019471     -0.448124
  C      -2.159628      1.024894     -0.384364
  O      -3.305985      1.642885     -0.620332
  C      -0.971804      1.745783     -0.231228
  O      -1.022075      3.112905     -0.331645
  C       0.227509      1.105647      0.014294
  H       3.748661     -1.458689      1.687730
  H       4.534435     -0.080521      0.869869
  H       4.067436     -1.527131     -0.065168
  H      -0.906198     -2.110241      0.022805
  H      -1.947783      3.337260     -0.509884
  H       1.131312      1.689448      0.129078
  O      -6.068185     -1.161390     -1.036452
  H      -5.689060     -2.018177     -0.801826
  H      -6.812002     -1.036052     -0.433365
  O      -6.107328      1.649658     -1.164197
  H      -6.524341      1.465505     -2.015897
  H      -5.699710      2.519862     -1.261966
  O      -5.260480      0.424743      1.619682
  H      -4.592487     -0.196855      1.931457
  H      -4.878489      1.291258      1.801445
  O      -4.109856      0.135043     -3.326796
  H      -3.594226     -0.649997     -3.108352
  H      -3.494148      0.863206     -3.183221
32
Coordinates from ORCA-job cu_P2_cplx E -2630.077892988756
  Cu     -4.671546      0.280711     -0.765303
  C       3.798695     -0.875157      0.767609
  O       2.556161     -0.222388      0.515604
  C       1.490373     -1.019394      0.362172
  O       1.582827     -2.234164      0.436276
  C       0.247668     -0.289676      0.105224
  C      -0.931683     -1.029245     -0.048678
  C      -2.136688     -0.385112     -0.291306
  O      -3.298319     -1.019442     -0.448387
  C      -2.159713      1.024714     -0.384876
  O      -3.306107      1.642871     -0.620398
  C      -0.971901      1.745632     -0.232160
  O      -1.022302      3.112686     -0.333115
  C       0.227446      1.105562      0.013312
  H       3.748259     -1.458121      1.688162
  H       4.534204     -0.080316      0.869777
  H       4.067364     -1.527215     -0.064650
  H      -0.906511     -2.110248      0.023343
  H      -1.948079      3.336711     -0.511531
  H       1.131258      1.689404      0.127558
  O      -6.068484     -1.161035     -1.036448
  H      -5.689626     -2.018423     -0.803596
  H      -6.812510     -1.036654     -0.433385
  O      -6.107361      1.650047     -1.162995
  H      -6.524417      1.466323     -2.014758
  H      -5.699722      2.520319     -1.259896
  O      -5.261113      0.424511      1.620031
  H      -4.593445     -0.197236      1.932270
  H      -4.878622      1.290911      1.801345
  O      -4.106856      0.135081     -3.327663
  H      -3.592185     -0.650011     -3.107274
  H      -3.492298      0.863417     -3.180190
32
Coordinates from ORCA-job cu_P2_cplx E -2630.077895913778
  Cu     -4.672262      0.280860     -0.764260
  C       3.797959     -0.875127      0.768272
  O       2.555681     -0.222353      0.515312
  C       1.489980     -1.019438      0.361286
  O       1.582523     -2.234180      0.435433
  C       0.247376     -0.289689      0.103909
  C      -0.932017     -1.029273     -0.049391
  C      -2.137006     -0.385140     -0.292035
  O      -3.298866     -1.019294     -0.448617
  C      -2.159965      1.024639     -0.386062
  O      -3.306486      1.642946     -0.620801
  C      -0.972054      1.745573     -0.234099
  O      -1.022477      3.112556     -0.335511
  C       0.227285      1.105467      0.011243
  H       3.747129     -1.457414      1.689230
  H       4.533639     -0.080415      0.870083
  H       4.067032     -1.527794     -0.063396
  H      -0.907011     -2.110146      0.023519
  H      -1.948307      3.336393     -0.513848
  H       1.131074      1.689404      0.125010
  O      -6.068630     -1.160649     -1.036807
  H      -5.690057     -2.018809     -0.806423
  H      -6.813384     -1.038089     -0.434306
  O      -6.107691      1.650289     -1.161071
  H      -6.525013      1.466653     -2.012703
  H      -5.700214      2.520682     -1.257279
  O      -5.261513      0.424092      1.620948
  H      -4.593491     -0.197042      1.933733
  H      -4.879330      1.290749      1.801689
  O      -4.101474      0.135002     -3.328646
  H      -3.588025     -0.649626     -3.103805
  H      -3.489633      0.864237     -3.174530
32
Coordinates from ORCA-job cu_P2_cplx E -2630.077900351736
  Cu     -4.673011      0.281052     -0.762694
  C       3.797389     -0.875358      0.768578
  O       2.555255     -0.222483      0.515126
  C       1.489641     -1.019504      0.360275
  O       1.582169     -2.234268      0.434114
  C       0.247127     -0.289664      0.102532
  C      -0.932338     -1.029211     -0.050019
  C      -2.137287     -0.385018     -0.292622
  O      -3.299400     -1.019078     -0.448244
  C      -2.160176      1.024727     -0.387064
  O      -3.306894      1.643129     -0.620692
  C      -0.972081      1.745669     -0.236046
  O      -1.022382      3.112627     -0.337717
  C       0.227209      1.105408      0.009003
  H       3.746402     -1.457337      1.689699
  H       4.533207     -0.080781      0.870279
  H       4.066612     -1.528293     -0.062801
  H      -0.907406     -2.110062      0.023498
  H      -1.948188      3.336609     -0.515895
  H       1.131020      1.689417      0.122400
  O      -6.068611     -1.160376     -1.037149
  H      -5.690232     -2.019195     -0.809007
  H      -6.814070     -1.039562     -0.435188
  O      -6.107867      1.650170     -1.159803
  H      -6.525375      1.465728     -2.011172
  H      -5.700527      2.520554     -1.256404
  O      -5.262943      0.423718      1.621637
  H      -4.594600     -0.196498      1.935658
  H      -4.881806      1.290837      1.802304
  O      -4.095698      0.134999     -3.329031
  H      -3.583022     -0.648635     -3.099008
  H      -3.487349      0.865744     -3.168469
32
Coordinates from ORCA-job cu_P2_cplx E -2630.077899748846
  Cu     -4.674710      0.281523     -0.759735
  C       3.795857     -0.875976      0.769213
  O       2.554077     -0.222666      0.514860
  C       1.488603     -1.019463      0.358549
  O       1.580972     -2.234293      0.431830
  C       0.246271     -0.289445      0.100183
  C      -0.933367     -1.028862     -0.051182
  C      -2.138260     -0.384523     -0.293590
  O      -3.300707     -1.018460     -0.447398
  C      -2.160961      1.025101     -0.388764
  O      -3.307932      1.643555     -0.621175
  C      -0.972570      1.745997     -0.239106
  O      -1.022555      3.112908     -0.341081
  C       0.226662      1.105502      0.005472
  H       3.744324     -1.457448      1.690596
  H       4.531942     -0.081699      0.870927
  H       4.065157     -1.529456     -0.061677
  H      -0.908440     -2.109740      0.022888
  H      -1.948286      3.337349     -0.518792
  H       1.130613      1.689478      0.118484
  O      -6.068789     -1.160233     -1.037178
  H      -5.690695     -2.019419     -0.810116
  H      -6.816134     -1.041134     -0.437233
  O      -6.108458      1.649836     -1.158305
  H      -6.527735      1.462750     -2.008244
  H      -5.701329      2.519958     -1.258047
  O      -5.262442      0.422463      1.623218
  H      -4.593012     -0.196731      1.936982
  H      -4.882533      1.290154      1.803782
  O      -4.084554      0.135209     -3.331015
  H      -3.572720     -0.646100     -3.091287
  H      -3.483520      0.868930     -3.156981
32
Coordinates from ORCA-job cu_P2_cplx E -2630.077871877918
  Cu     -4.675835      0.282010     -0.757830
  C       3.795449     -0.875912      0.767760
  O       2.553485     -0.222987      0.513397
  C       1.487833     -1.019799      0.358435
  O       1.579949     -2.234560      0.432767
  C       0.245531     -0.289753      0.099918
  C      -0.934422     -1.028925     -0.050285
  C      -2.139269     -0.384355     -0.292492
  O      -3.302019     -1.018081     -0.445402
  C      -2.161532      1.025129     -0.389234
  O      -3.308430      1.643978     -0.621201
  C      -0.972842      1.745833     -0.240972
  O      -1.022479      3.112659     -0.344673
  C       0.226280      1.105102      0.003808
  H       3.744521     -1.456055      1.690033
  H       4.531619     -0.081447      0.867787
  H       4.064112     -1.530557     -0.062416
  H      -0.909986     -2.109733      0.025133
  H      -1.948310      3.336975     -0.522613
  H       1.130408      1.688981      0.115715
  O      -6.069562     -1.159733     -1.036014
  H      -5.695118     -2.017742     -0.806289
  H      -6.817717     -1.038272     -0.440543
  O      -6.108968      1.649259     -1.157987
  H      -6.533934      1.457977     -2.003605
  H      -5.703039      2.518100     -1.265283
  O      -5.263531      0.421432      1.621735
  H      -4.598334     -0.203069      1.938950
  H      -4.879435      1.287747      1.806689
  O      -4.073664      0.137547     -3.332779
  H      -3.559107     -0.643466     -3.088504
  H      -3.476885      0.876784     -3.147926
32
Coordinates from ORCA-job cu_P2_cplx E -2630.077961743277
  Cu     -4.676588      0.282442     -0.755530
  C       3.794849     -0.875419      0.768105
  O       2.553153     -0.222548      0.512066
  C       1.487525     -1.019682      0.356829
  O       1.579618     -2.234611      0.431435
  C       0.245208     -0.289885      0.097823
  C      -0.934839     -1.029228     -0.051446
  C      -2.139662     -0.384284     -0.292719
  O      -3.302670     -1.018335     -0.443474
  C      -2.161976      1.025351     -0.389974
  O      -3.309055      1.644228     -0.621075
  C      -0.973074      1.746058     -0.243033
  O      -1.022479      3.112906     -0.346988
  C       0.226044      1.105139      0.001096
  H       3.743088     -1.454701      1.691147
  H       4.531101     -0.080738      0.868109
  H       4.063984     -1.531044     -0.061321
  H      -0.910019     -2.110253      0.023257
  H      -1.948494      3.337727     -0.522886
  H       1.130372      1.688952      0.112913
  O      -6.069879     -1.158339     -1.036523
  H      -5.697540     -2.017128     -0.807123
  H      -6.817034     -1.036924     -0.442852
  O      -6.108286      1.650034     -1.157467
  H      -6.534692      1.456557     -2.001205
  H      -5.702846      2.518354     -1.269000
  O      -5.263580      0.419563      1.623400
  H      -4.598340     -0.202186      1.937869
  H      -4.882546      1.284140      1.807602
  O      -4.065801      0.140764     -3.331535
  H      -3.563409     -0.642073     -3.087519
  H      -3.467365      0.870224     -3.133905
32
Coordinates from ORCA-job cu_P2_cplx E -2630.076111644107
  Cu     -4.674340      0.282874     -0.754826
  C       3.795274     -0.876849      0.764031
  O       2.552872     -0.221562      0.513352
  C       1.488671     -1.017259      0.351848
  O       1.582338     -2.231698      0.417861
  C       0.245556     -0.287948      0.097510
  C      -0.934501     -1.026480     -0.052800
  C      -2.140157     -0.383634     -0.293427
  O      -3.301244     -1.017034     -0.445140
  C      -2.162108      1.026131     -0.386102
  O      -3.309566      1.645447     -0.618160
  C      -0.973762      1.746130     -0.235523
  O      -1.024383      3.112071     -0.332590
  C       0.225910      1.105889      0.006337
  H       3.742622     -1.466471      1.678990
  H       4.528841     -0.083104      0.874276
  H       4.065710     -1.522818     -0.071368
  H      -0.907667     -2.106628      0.017811
  H      -1.949449      3.338854     -0.506933
  H       1.130978      1.687417      0.120739
  O      -6.071220     -1.157043     -1.038831
  H      -5.677598     -2.031731     -0.801844
  H      -6.844191     -1.032550     -0.427700
  O      -6.107440      1.649417     -1.164094
  H      -6.534888      1.443551     -2.021899
  H      -5.685188      2.530320     -1.279090
  O      -5.267253      0.426604      1.623272
  H      -4.605699     -0.191585      1.936327
  H      -4.885305      1.289366      1.795628
  O      -4.063338      0.135348     -3.328126
  H      -3.563156     -0.647601     -3.071921
  H      -3.471549      0.857638     -3.131531
32
Coordinates from ORCA-job cu_P2_cplx E -2630.077842893986
  Cu     -4.675330      0.282029     -0.756270
  C       3.797119     -0.875909      0.763519
  O       2.554398     -0.222701      0.513964
  C       1.488808     -1.019643      0.359176
  O       1.581309     -2.234441      0.432104
  C       0.246000     -0.289547      0.102451
  C      -0.934070     -1.028881     -0.046262
  C      -2.138783     -0.384576     -0.289889
  O      -3.301747     -1.018021     -0.441355
  C      -2.160688      1.024737     -0.387998
  O      -3.307663      1.642822     -0.621423
  C      -0.972053      1.745897     -0.239681
  O      -1.021283      3.113069     -0.343391
  C       0.226923      1.105310      0.005648
  H       3.749250     -1.457817      1.684855
  H       4.533621     -0.081710      0.863293
  H       4.063328     -1.528864     -0.068810
  H      -0.909174     -2.109881      0.029022
  H      -1.946818      3.337665     -0.522063
  H       1.131245      1.689100      0.117375
  O      -6.068362     -1.159184     -1.040599
  H      -5.693325     -2.018013     -0.809568
  H      -6.825397     -1.040399     -0.448115
  O      -6.109190      1.649824     -1.158780
  H      -6.533071      1.456230     -2.003116
  H      -5.703521      2.517692     -1.267923
  O      -5.270971      0.422346      1.622802
  H      -4.604608     -0.200087      1.943432
  H      -4.888758      1.293229      1.810690
  O      -4.069344      0.141437     -3.332154
  H      -3.564541     -0.643718     -3.088145
  H      -3.468536      0.867070     -3.146710
32
Coordinates from ORCA-job cu_P2_cplx E -2630.076518468034
  Cu     -4.678631      0.281647     -0.754318
  C       3.794607     -0.873004      0.769817
  O       2.551778     -0.223928      0.510824
  C       1.486980     -1.022309      0.354719
  O       1.579610     -2.237365      0.429952
  C       0.244608     -0.292733      0.095301
  C      -0.935649     -1.030626     -0.054371
  C      -2.140206     -0.383778     -0.294456
  O      -3.303535     -1.019329     -0.443937
  C      -2.163289      1.026283     -0.392266
  O      -3.310421      1.645145     -0.622207
  C      -0.973427      1.743686     -0.246362
  O      -1.020608      3.110782     -0.350561
  C       0.225735      1.102273     -0.001107
  H       3.741453     -1.452095      1.693268
  H       4.528409     -0.075881      0.871420
  H       4.067983     -1.528144     -0.058857
  H      -0.913120     -2.111138      0.020434
  H      -1.946851      3.338451     -0.524248
  H       1.128935      1.687102      0.110606
  O      -6.070933     -1.158010     -1.031087
  H      -5.701323     -2.020323     -0.802245
  H      -6.807012     -1.032266     -0.437301
  O      -6.109232      1.652476     -1.157045
  H      -6.539715      1.458859     -2.001227
  H      -5.700777      2.522166     -1.271625
  O      -5.257841      0.419884      1.619897
  H      -4.601329     -0.193116      1.928821
  H      -4.887198      1.265422      1.803779
  O      -4.065688      0.138127     -3.328435
  H      -3.559347     -0.651054     -3.086557
  H      -3.459196      0.887861     -3.114545
32
Coordinates from ORCA-job cu_P2_cplx E -2630.077395553835
  Cu     -4.680334      0.282179     -0.747029
  C       3.787417     -0.876244      0.775531
  O       2.548058     -0.220068      0.508833
  C       1.483916     -1.015904      0.345546
  O       1.576727     -2.230967      0.414369
  C       0.241966     -0.288211      0.083897
  C      -0.937971     -1.028995     -0.066922
  C      -2.145245     -0.387079     -0.299674
  O      -3.306989     -1.019321     -0.447448
  C      -2.167837      1.023197     -0.389902
  O      -3.316048      1.644935     -0.614557
  C      -0.980735      1.745487     -0.246171
  O      -1.036287      3.110111     -0.347860
  C       0.220818      1.106229     -0.009738
  H       3.723189     -1.458987      1.694699
  H       4.520875     -0.081338      0.884860
  H       4.062902     -1.529705     -0.052517
  H      -0.909942     -2.109294      0.007573
  H      -1.963288      3.331805     -0.518971
  H       1.126751      1.687995      0.100542
  O      -6.079718     -1.155300     -1.025954
  H      -5.702502     -2.016135     -0.797855
  H      -6.813302     -1.027389     -0.419195
  O      -6.102520      1.645831     -1.164110
  H      -6.531476      1.444206     -2.011971
  H      -5.685776      2.516176     -1.290551
  O      -5.253906      0.419716      1.632251
  H      -4.571209     -0.212424      1.931238
  H      -4.870676      1.288952      1.802928
  O      -4.035909      0.141343     -3.326110
  H      -3.546969     -0.635097     -3.077116
  H      -3.449210      0.879359     -3.092536
32
Coordinates from ORCA-job cu_P2_cplx E -2630.076986439698
  Cu     -4.680318      0.284825     -0.749850
  C       3.790199     -0.874051      0.769512
  O       2.549271     -0.221733      0.509346
  C       1.484290     -1.019814      0.347434
  O       1.576906     -2.234775      0.415371
  C       0.242008     -0.290267      0.088265
  C      -0.937537     -1.029460     -0.062625
  C      -2.143553     -0.384259     -0.297574
  O      -3.306828     -1.017264     -0.447188
  C      -2.166184      1.024515     -0.388202
  O      -3.314079      1.645880     -0.614759
  C      -0.977537      1.745807     -0.242021
  O      -1.030566      3.112272     -0.342498
  C       0.222297      1.104842     -0.003935
  H       3.733957     -1.458770      1.688286
  H       4.524944     -0.079200      0.879148
  H       4.064976     -1.524315     -0.061742
  H      -0.910685     -2.111878      0.009542
  H      -1.958407      3.333937     -0.514478
  H       1.128293      1.687016      0.107905
  O      -6.077018     -1.155672     -1.031330
  H      -5.699181     -2.014777     -0.803935
  H      -6.826320     -1.032363     -0.420675
  O      -6.104666      1.650949     -1.167155
  H      -6.524771      1.448690     -2.005670
  H      -5.694181      2.509366     -1.288974
  O      -5.260676      0.417360      1.629117
  H      -4.594923     -0.201213      1.932548
  H      -4.872327      1.295577      1.804760
  O      -4.036691      0.148479     -3.330202
  H      -3.533785     -0.648054     -3.067226
  H      -3.462140      0.863412     -3.105114
32
Coordinates from ORCA-job cu_P2_cplx E -2630.077738595555
  Cu     -4.680896      0.281491     -0.750711
  C       3.793041     -0.876996      0.766050
  O       2.549906     -0.223585      0.515336
  C       1.486785     -1.019882      0.354286
  O       1.581324     -2.234410      0.422192
  C       0.243243     -0.288799      0.098482
  C      -0.936501     -1.027663     -0.048551
  C      -2.143023     -0.384439     -0.289507
  O      -3.306859     -1.017528     -0.437231
  C      -2.163000      1.024250     -0.390672
  O      -3.309788      1.640576     -0.624618
  C      -0.973868      1.745876     -0.243576
  O      -1.023233      3.113432     -0.347556
  C       0.225043      1.105799      0.001706
  H       3.743119     -1.465656      1.682825
  H       4.527131     -0.082859      0.874581
  H       4.063926     -1.523792     -0.069936
  H      -0.911317     -2.108522      0.028097
  H      -1.949280      3.337396     -0.525775
  H       1.129372      1.689158      0.112957
  O      -6.073758     -1.161601     -1.032428
  H      -5.697202     -2.017302     -0.807395
  H      -6.834025     -1.047507     -0.434524
  O      -6.112585      1.649841     -1.167713
  H      -6.542616      1.450653     -2.007732
  H      -5.700352      2.511809     -1.284103
  O      -5.256987      0.423816      1.621320
  H      -4.589895     -0.195045      1.934712
  H      -4.879851      1.288954      1.819132
  O      -4.047772      0.145348     -3.331730
  H      -3.545808     -0.639666     -3.095333
  H      -3.459505      0.881917     -3.106507
32
Coordinates from ORCA-job cu_P2_cplx E -2630.077077083723
  Cu     -4.679733      0.284594     -0.748872
  C       3.791473     -0.874257      0.773471
  O       2.551337     -0.224583      0.509838
  C       1.485423     -1.023028      0.350066
  O       1.576329     -2.238264      0.426724
  C       0.244403     -0.293493      0.088385
  C      -0.937372     -1.030936     -0.060781
  C      -2.141184     -0.382623     -0.296604
  O      -3.304907     -1.016308     -0.444282
  C      -2.164120      1.027757     -0.393388
  O      -3.310623      1.649114     -0.621427
  C      -0.973696      1.744110     -0.250370
  O      -1.020222      3.110607     -0.356472
  C       0.225873      1.101770     -0.007702
  H       3.733165     -1.452359      1.696829
  H       4.526751     -0.078200      0.878047
  H       4.067379     -1.530078     -0.052756
  H      -0.915656     -2.110741      0.012680
  H      -1.946096      3.337629     -0.530434
  H       1.129726      1.685241      0.102220
  O      -6.071797     -1.156349     -1.030918
  H      -5.695267     -2.022877     -0.806475
  H      -6.797322     -1.035639     -0.438617
  O      -6.111150      1.647736     -1.153694
  H      -6.546211      1.444856     -2.005766
  H      -5.706551      2.528013     -1.277316
  O      -5.264356      0.417885      1.627409
  H      -4.592398     -0.208043      1.944850
  H      -4.888055      1.280973      1.813111
  O      -4.051085      0.149975     -3.331950
  H      -3.548649     -0.636593     -3.070717
  H      -3.460642      0.879178     -3.109012
32
Coordinates from ORCA-job cu_P2_cplx E -2630.077777281710
  Cu     -4.683744      0.280882     -0.744886
  C       3.791638     -0.871145      0.758971
  O       2.548186     -0.220551      0.505179
  C       1.483534     -1.020346      0.346680
  O       1.577572     -2.236051      0.414276
  C       0.239531     -0.293470      0.091763
  C      -0.941078     -1.034709     -0.053807
  C      -2.146044     -0.389457     -0.291398
  O      -3.309767     -1.022814     -0.436600
  C      -2.169863      1.021177     -0.387520
  O      -3.318438      1.641911     -0.614988
  C      -0.981882      1.742465     -0.244519
  O      -1.033360      3.109481     -0.349784
  C       0.218845      1.101844     -0.005870
  H       3.738501     -1.456009      1.678926
  H       4.525271     -0.073623      0.863818
  H       4.063010     -1.521458     -0.074144
  H      -0.915621     -2.115417      0.022297
  H      -1.960269      3.332365     -0.522273
  H       1.123722      1.687070      0.100803
  O      -6.081684     -1.151638     -1.029868
  H      -5.711323     -2.020535     -0.800428
  H      -6.827043     -1.024939     -0.429053
  O      -6.103091      1.650797     -1.173530
  H      -6.516854      1.447351     -2.015309
  H      -5.690163      2.515377     -1.299840
  O      -5.275280      0.418644      1.637932
  H      -4.600734     -0.201752      1.935148
  H      -4.893138      1.287542      1.809459
  O      -4.004822      0.147617     -3.327597
  H      -3.513363     -0.635763     -3.059151
  H      -3.427481      0.880220     -3.068611
32
Coordinates from ORCA-job cu_P2_cplx E -2630.077554581904
  Cu     -4.680984      0.282963     -0.746650
  C       3.791285     -0.880659      0.764714
  O       2.549306     -0.224386      0.513335
  C       1.486077     -1.018145      0.351093
  O       1.579289     -2.231899      0.418588
  C       0.243137     -0.285397      0.094569
  C      -0.935807     -1.024046     -0.051717
  C      -2.143876     -0.383235     -0.291300
  O      -3.307453     -1.016294     -0.437045
  C      -2.163161      1.024013     -0.389161
  O      -3.310835      1.639888     -0.619898
  C      -0.974494      1.747458     -0.244418
  O      -1.026695      3.113578     -0.346787
  C       0.224957      1.108413     -0.000621
  H       3.740379     -1.469249      1.680199
  H       4.526249     -0.088880      0.874788
  H       4.061366     -1.527261     -0.070591
  H      -0.908288     -2.105328      0.024083
  H      -1.953593      3.336485     -0.522381
  H       1.130450      1.689199      0.110769
  O      -6.071243     -1.162434     -1.031422
  H      -5.695245     -2.010587     -0.809701
  H      -6.829741     -1.049616     -0.430636
  O      -6.113801      1.647477     -1.166928
  H      -6.551445      1.445939     -2.012532
  H      -5.701147      2.507554     -1.284006
  O      -5.263011      0.425113      1.624549
  H      -4.593161     -0.192485      1.941796
  H      -4.885971      1.291624      1.811041
  O      -4.031322      0.147378     -3.337142
  H      -3.534073     -0.637184     -3.075827
  H      -3.452380      0.875069     -3.104683
32
Coordinates from ORCA-job cu_P2_cplx E -2630.077848684712
  Cu     -4.673218      0.277965     -0.755021
  C       3.802404     -0.876139      0.759818
  O       2.558270     -0.224809      0.516183
  C       1.493272     -1.022786      0.362687
  O       1.586913     -2.237707      0.436536
  C       0.249914     -0.292148      0.108392
  C      -0.930691     -1.030396     -0.039625
  C      -2.134848     -0.384858     -0.284207
  O      -3.298222     -1.018988     -0.436095
  C      -2.156774      1.024468     -0.387844
  O      -3.302753      1.640143     -0.626510
  C      -0.967076      1.743899     -0.238448
  O      -1.012095      3.112085     -0.344731
  C       0.231205      1.102976      0.010879
  H       3.759026     -1.460010      1.680693
  H       4.538464     -0.081253      0.858794
  H       4.067717     -1.527027     -0.075089
  H      -0.908920     -2.110984      0.037107
  H      -1.936540      3.338875     -0.527069
  H       1.133939      1.688446      0.121854
  O      -6.064694     -1.163238     -1.038366
  H      -5.691262     -2.023474     -0.802309
  H      -6.825232     -1.042791     -0.453695
  O      -6.111202      1.648695     -1.158541
  H      -6.541948      1.448701     -1.999028
  H      -5.704604      2.518088     -1.277882
  O      -5.283653      0.424993      1.610011
  H      -4.626994     -0.191823      1.952730
  H      -4.913768      1.294363      1.822846
  O      -4.081678      0.147209     -3.334027
  H      -3.564948     -0.632125     -3.103402
  H      -3.485239      0.884712     -3.160566
32
Coordinates from ORCA-job cu_P2_cplx E -2630.077846209145
  Cu     -4.676435      0.280595     -0.750610
  C       3.796414     -0.874070      0.761622
  O       2.553293     -0.221925      0.508615
  C       1.487249     -1.019929      0.354877
  O       1.579553     -2.235237      0.425873
  C       0.244224     -0.292108      0.098772
  C      -0.936086     -1.032361     -0.050182
  C      -2.141315     -0.388172     -0.289333
  O      -3.303191     -1.022126     -0.439047
  C      -2.164058      1.022319     -0.386272
  O      -3.311383      1.642687     -0.620269
  C      -0.976525      1.743106     -0.238829
  O      -1.028152      3.109310     -0.342991
  C       0.223699      1.103107      0.003200
  H       3.744295     -1.456088      1.682697
  H       4.530967     -0.077487      0.862713
  H       4.064583     -1.527205     -0.069603
  H      -0.910399     -2.113229      0.025071
  H      -1.954047      3.333909     -0.517891
  H       1.128883      1.686799      0.113188
  O      -6.074112     -1.156587     -1.034049
  H      -5.701065     -2.017518     -0.796685
  H      -6.820277     -1.027952     -0.437624
  O      -6.102622      1.648448     -1.164590
  H      -6.531200      1.446729     -2.004823
  H      -5.693356      2.513586     -1.290746
  O      -5.269603      0.424632      1.621740
  H      -4.603158     -0.199175      1.939548
  H      -4.896741      1.288723      1.805149
  O      -4.049688      0.145399     -3.332379
  H      -3.542262     -0.636128     -3.078319
  H      -3.462718      0.883010     -3.122745
32
Coordinates from ORCA-job cu_P2_cplx E -2630.077892248913
  Cu     -4.682194      0.281609     -0.742331
  C       3.792237     -0.875928      0.761585
  O       2.550082     -0.223176      0.506762
  C       1.485518     -1.020454      0.347180
  O       1.578788     -2.235287      0.416514
  C       0.242530     -0.291044      0.090513
  C      -0.937822     -1.030354     -0.055715
  C      -2.143674     -0.385905     -0.292627
  O      -3.307331     -1.019144     -0.438582
  C      -2.166137      1.023064     -0.388686
  O      -3.314492      1.642193     -0.615711
  C      -0.977294      1.743935     -0.245738
  O      -1.027743      3.110049     -0.349097
  C       0.222806      1.103454     -0.005535
  H       3.739280     -1.460587      1.680688
  H       4.526877     -0.081074      0.867813
  H       4.063892     -1.526210     -0.070770
  H      -0.912194     -2.111215      0.019203
  H      -1.954322      3.334581     -0.522432
  H       1.127624      1.686733      0.103773
  O      -6.074031     -1.158399     -1.029367
  H      -5.700621     -2.019547     -0.803726
  H      -6.821342     -1.036860     -0.432858
  O      -6.106806      1.648350     -1.166468
  H      -6.539705      1.439071     -2.005623
  H      -5.694358      2.512774     -1.298526
  O      -5.277555      0.424877      1.624811
  H      -4.613623     -0.193897      1.943000
  H      -4.897635      1.293401      1.807535
  O      -4.014643      0.147466     -3.332908
  H      -3.516764     -0.631178     -3.059176
  H      -3.444578      0.883765     -3.077424
32
Coordinates from ORCA-job cu_P2_cplx E -2630.077891099325
  Cu     -4.677216      0.280648     -0.748575
  C       3.797796     -0.877925      0.759448
  O       2.554591     -0.224870      0.512407
  C       1.489429     -1.021683      0.358186
  O       1.582346     -2.236389      0.432024
  C       0.246427     -0.290715      0.102495
  C      -0.934176     -1.029205     -0.042907
  C      -2.139154     -0.384496     -0.285508
  O      -3.303119     -1.017834     -0.433526
  C      -2.159921      1.024404     -0.388963
  O      -3.306418      1.641278     -0.624534
  C      -0.970135      1.745054     -0.243806
  O      -1.017018      3.112506     -0.351832
  C       0.228355      1.104094      0.003147
  H       3.752161     -1.460622      1.680480
  H       4.534193     -0.083941      0.858873
  H       4.063389     -1.530149     -0.073926
  H      -0.910532     -2.109872      0.034235
  H      -1.942360      3.338126     -0.530706
  H       1.132687      1.687782      0.112553
  O      -6.067613     -1.161810     -1.036212
  H      -5.694444     -2.020399     -0.802835
  H      -6.827795     -1.042921     -0.448662
  O      -6.112226      1.647123     -1.160609
  H      -6.549553      1.439745     -1.996533
  H      -5.706273      2.513876     -1.288611
  O      -5.279967      0.423339      1.615370
  H      -4.622367     -0.197131      1.954654
  H      -4.907948      1.290697      1.820391
  O      -4.046443      0.152299     -3.338471
  H      -3.537209     -0.625839     -3.085171
  H      -3.464718      0.889894     -3.126798
32
Coordinates from ORCA-job cu_P2_cplx E -2630.077931345439
  Cu     -4.681505      0.281883     -0.740835
  C       3.793609     -0.876753      0.760576
  O       2.551049     -0.224046      0.508311
  C       1.485994     -1.021433      0.351350
  O       1.578745     -2.236417      0.423134
  C       0.243185     -0.291669      0.094223
  C      -0.937767     -1.030583     -0.049362
  C      -2.142857     -0.385598     -0.289204
  O      -3.306991     -1.018645     -0.433734
  C      -2.164067      1.023562     -0.391473
  O      -3.311595      1.642329     -0.622488
  C      -0.974468      1.743967     -0.249883
  O      -1.022816      3.110587     -0.357908
  C       0.224759      1.102954     -0.006437
  H       3.743517     -1.459067      1.681621
  H       4.529212     -0.081876      0.862303
  H       4.062158     -1.529398     -0.071272
  H      -0.913527     -2.111275      0.028897
  H      -1.948686      3.336102     -0.533265
  H       1.129765      1.686472      0.101276
  O      -6.071570     -1.158608     -1.034089
  H      -5.701877     -2.019414     -0.799712
  H      -6.831617     -1.036704     -0.450590
  O      -6.109637      1.647133     -1.159992
  H      -6.552614      1.431979     -1.990832
  H      -5.701337      2.510910     -1.301679
  O      -5.276822      0.421222      1.621442
  H      -4.616223     -0.199222      1.952838
  H      -4.904805      1.288297      1.818151
  O      -4.010038      0.154031     -3.339910
  H      -3.508363     -0.620895     -3.060765
  H      -3.448041      0.895236     -3.084612
32
Coordinates from ORCA-job cu_P2_cplx E -2630.077932630483
  Cu     -4.681458      0.281549     -0.738605
  C       3.793884     -0.877063      0.760339
  O       2.551313     -0.224419      0.507390
  C       1.486631     -1.021715      0.349383
  O       1.579672     -2.236550      0.420003
  C       0.243729     -0.292183      0.092490
  C      -0.937124     -1.031104     -0.051904
  C      -2.142605     -0.386308     -0.289972
  O      -3.306596     -1.019159     -0.435116
  C      -2.163980      1.022750     -0.390618
  O      -3.311719      1.641674     -0.621398
  C      -0.974653      1.743155     -0.248955
  O      -1.023595      3.109451     -0.356119
  C       0.224888      1.102347     -0.006502
  H       3.742562     -1.460932      1.680111
  H       4.528693     -0.082026      0.864419
  H       4.063811     -1.528163     -0.072041
  H      -0.912573     -2.111818      0.025581
  H      -1.949707      3.334813     -0.530579
  H       1.130015      1.685569      0.101371
  O      -6.070777     -1.160143     -1.029521
  H      -5.704673     -2.018565     -0.782275
  H      -6.833822     -1.028836     -0.453047
  O      -6.107667      1.646591     -1.162783
  H      -6.560653      1.422563     -1.985984
  H      -5.696662      2.506747     -1.320529
  O      -5.278979      0.421080      1.619042
  H      -4.622875     -0.200118      1.954314
  H      -4.906608      1.287725      1.818715
  O      -4.003637      0.155795     -3.342058
  H      -3.497070     -0.612706     -3.054652
  H      -3.452994      0.905063     -3.084421
32
Coordinates from ORCA-job cu_P2_cplx E -2630.077953019223
  Cu     -4.683214      0.281602     -0.733708
  C       3.793657     -0.877575      0.757214
  O       2.550779     -0.225158      0.504865
  C       1.486142     -1.022498      0.347472
  O       1.579202     -2.237303      0.418313
  C       0.243063     -0.293049      0.090987
  C      -0.938035     -1.031888     -0.052251
  C      -2.143545     -0.386980     -0.289828
  O      -3.307939     -1.019317     -0.433802
  C      -2.164679      1.021953     -0.390701
  O      -3.312657      1.640901     -0.620912
  C      -0.975240      1.742282     -0.250526
  O      -1.023984      3.108539     -0.358354
  C       0.224391      1.101368     -0.008602
  H       3.742888     -1.461133      1.677200
  H       4.528336     -0.082372      0.860556
  H       4.063062     -1.528926     -0.075106
  H      -0.913570     -2.112496      0.025809
  H      -1.950229      3.333866     -0.532249
  H       1.129692      1.684389      0.098341
  O      -6.070702     -1.161040     -1.027914
  H      -5.708070     -2.018174     -0.771350
  H      -6.839211     -1.024592     -0.460202
  O      -6.107942      1.645746     -1.164206
  H      -6.572448      1.410861     -1.978204
  H      -5.696870      2.502471     -1.339879
  O      -5.283116      0.420853      1.618226
  H      -4.630127     -0.199979      1.959367
  H      -4.912854      1.287937      1.821622
  O      -3.980760      0.160737     -3.344834
  H      -3.475253     -0.601655     -3.040371
  H      -3.445996      0.915696     -3.070893
32
Coordinates from ORCA-job cu_P2_cplx E -2630.077957481727
  Cu     -4.684470      0.281148     -0.729493
  C       3.793622     -0.878209      0.754485
  O       2.550545     -0.225850      0.502777
  C       1.485907     -1.023214      0.345858
  O       1.579011     -2.238002      0.416713
  C       0.242708     -0.293800      0.089775
  C      -0.938459     -1.032622     -0.053051
  C      -2.144035     -0.387718     -0.290133
  O      -3.308610     -1.019747     -0.433747
  C      -2.165157      1.021213     -0.390465
  O      -3.313356      1.640120     -0.620175
  C      -0.975738      1.741543     -0.251008
  O      -1.024527      3.107749     -0.358771
  C       0.224011      1.100582     -0.009677
  H       3.743361     -1.461573      1.674608
  H       4.528269     -0.082920      0.857159
  H       4.062474     -1.529776     -0.077833
  H      -0.913974     -2.113201      0.025135
  H      -1.950831      3.333117     -0.532356
  H       1.129446      1.683486      0.096758
  O      -6.070386     -1.162338     -1.025904
  H      -5.711099     -2.017666     -0.758959
  H      -6.844088     -1.020169     -0.466720
  O      -6.107667      1.644781     -1.165437
  H      -6.582983      1.400450     -1.970135
  H      -5.695587      2.497529     -1.357844
  O      -5.286974      0.421194      1.616801
  H      -4.636516     -0.198736      1.964416
  H      -4.919949      1.288811      1.823380
  O      -3.961897      0.163573     -3.348315
  H      -3.454712     -0.590970     -3.027255
  H      -3.443567      0.926279     -3.064508
32
Coordinates from ORCA-job cu_P2_cplx E -2630.077970888283
  Cu     -4.686011      0.278060     -0.724215
  C       3.796765     -0.879241      0.741674
  O       2.552055     -0.227454      0.496786
  C       1.486177     -1.025203      0.348046
  O       1.578865     -2.240142      0.422736
  C       0.242114     -0.295790      0.095013
  C      -0.939029     -1.035116     -0.046852
  C      -2.144361     -0.390351     -0.285723
  O      -3.309174     -1.022070     -0.429853
  C      -2.165663      1.019051     -0.385728
  O      -3.313914      1.636625     -0.617454
  C      -0.976574      1.739796     -0.246211
  O      -1.025220      3.106624     -0.354206
  C       0.223351      1.098983     -0.004677
  H       3.753176     -1.458250      1.665224
  H       4.532804     -0.083587      0.834756
  H       4.058550     -1.534998     -0.089975
  H      -0.914576     -2.115612      0.031272
  H      -1.951327      3.331595     -0.529470
  H       1.128737      1.682269      0.100425
  O      -6.071712     -1.165604     -1.027815
  H      -5.709813     -2.019486     -0.756526
  H      -6.846982     -1.024461     -0.468296
  O      -6.108537      1.643144     -1.169646
  H      -6.593852      1.390339     -1.965534
  H      -5.697476      2.491227     -1.378253
  O      -5.302696      0.429416      1.613919
  H      -4.655314     -0.188469      1.976270
  H      -4.943144      1.298919      1.823936
  O      -3.934173      0.169790     -3.352785
  H      -3.427572     -0.576755     -3.010860
  H      -3.430703      0.941815     -3.069900
32
Coordinates from ORCA-job cu_P2_cplx E -2630.078025424009
  Cu     -4.688352      0.277891     -0.718403
  C       3.795025     -0.879696      0.740459
  O       2.550443     -0.227903      0.495023
  C       1.484952     -1.025631      0.344659
  O       1.577940     -2.240416      0.418142
  C       0.240814     -0.296301      0.091720
  C      -0.940451     -1.035563     -0.048573
  C      -2.145972     -0.390765     -0.286365
  O      -3.311085     -1.022340     -0.428778
  C      -2.167085      1.018281     -0.387396
  O      -3.315635      1.635962     -0.618237
  C      -0.977791      1.739052     -0.249929
  O      -1.026462      3.105550     -0.359179
  C       0.222159      1.098231     -0.008765
  H       3.750672     -1.460111      1.662891
  H       4.530654     -0.084187      0.835765
  H       4.058125     -1.533939     -0.091760
  H      -0.915846     -2.116058      0.030079
  H      -1.952698      3.330768     -0.533470
  H       1.127770      1.681260      0.095416
  O      -6.072665     -1.165370     -1.024483
  H      -5.714855     -2.019054     -0.749028
  H      -6.851516     -1.020880     -0.471721
  O      -6.108130      1.642173     -1.170287
  H      -6.603364      1.379974     -1.956951
  H      -5.695625      2.486124     -1.395022
  O      -5.304589      0.428492      1.613623
  H      -4.659836     -0.188585      1.979885
  H      -4.946977      1.298366      1.826252
  O      -3.906573      0.173843     -3.356579
  H      -3.402038     -0.564855     -2.995801
  H      -3.426239      0.950753     -3.047112
32
Coordinates from ORCA-job cu_P2_cplx E -2630.078014502016
  Cu     -4.689991      0.276702     -0.712416
  C       3.794312     -0.880341      0.739582
  O       2.549670     -0.228530      0.494531
  C       1.484443     -1.026405      0.343075
  O       1.577663     -2.241223      0.415435
  C       0.240174     -0.297047      0.090414
  C      -0.941121     -1.036288     -0.048406
  C      -2.146805     -0.391414     -0.285185
  O      -3.312049     -1.023155     -0.426758
  C      -2.167907      1.017342     -0.387535
  O      -3.316676      1.634615     -0.618823
  C      -0.978357      1.738074     -0.252232
  O      -1.026835      3.104267     -0.363461
  C       0.221645      1.097399     -0.011164
  H       3.749848     -1.461994      1.661214
  H       4.529720     -0.084789      0.836294
  H       4.057942     -1.533344     -0.093430
  H      -0.916609     -2.116814      0.030812
  H      -1.953120      3.329871     -0.536863
  H       1.127423      1.680347      0.091762
  O      -6.073040     -1.166876     -1.020590
  H      -5.716874     -2.019513     -0.740073
  H      -6.854512     -1.020058     -0.472375
  O      -6.106617      1.641649     -1.169959
  H      -6.612460      1.370891     -1.946822
  H      -5.690728      2.479204     -1.411963
  O      -5.307412      0.429032      1.612547
  H      -4.666157     -0.187798      1.984658
  H      -4.953165      1.298998      1.830336
  O      -3.886855      0.180324     -3.365914
  H      -3.382152     -0.551633     -2.991818
  H      -3.428627      0.963567     -3.038800
32
Coordinates from ORCA-job cu_P2_cplx E -2630.078020888681
  Cu     -4.691692      0.275525     -0.705664
  C       3.793907     -0.880470      0.738552
  O       2.548796     -0.228993      0.494998
  C       1.484219     -1.027310      0.341145
  O       1.578103     -2.242194      0.410856
  C       0.239557     -0.298153      0.089383
  C      -0.941858     -1.037543     -0.047292
  C      -2.147708     -0.392556     -0.283018
  O      -3.313261     -1.024241     -0.423129
  C      -2.168599      1.015865     -0.387370
  O      -3.317598      1.632667     -0.619562
  C      -0.978868      1.736724     -0.254720
  O      -1.027108      3.102596     -0.368740
  C       0.221181      1.096182     -0.013646
  H       3.749488     -1.465551      1.658024
  H       4.528489     -0.084554      0.838790
  H       4.058669     -1.530102     -0.096724
  H      -0.917218     -2.118025      0.032373
  H      -1.953464      3.328458     -0.541401
  H       1.127298      1.678961      0.087533
  O      -6.074521     -1.167813     -1.015100
  H      -5.720319     -2.020062     -0.730976
  H      -6.857661     -1.018686     -0.469864
  O      -6.103961      1.641351     -1.172882
  H      -6.618307      1.361319     -1.940694
  H      -5.683308      2.471165     -1.432904
  O      -5.311767      0.429048      1.612917
  H      -4.673417     -0.188234      1.989332
  H      -4.960554      1.298965      1.835732
  O      -3.866770      0.189410     -3.375296
  H      -3.362561     -0.536362     -2.988816
  H      -3.434417      0.977675     -3.025757
32
Coordinates from ORCA-job cu_P2_cplx E -2630.078049424859
  Cu     -4.693643      0.271854     -0.697288
  C       3.792993     -0.878756      0.740893
  O       2.547009     -0.228233      0.499807
  C       1.484249     -1.027848      0.339213
  O       1.580133     -2.242865      0.402266
  C       0.238689     -0.299396      0.089149
  C      -0.942481     -1.039529     -0.044029
  C      -2.148898     -0.394750     -0.278068
  O      -3.314434     -1.027698     -0.416772
  C      -2.170136      1.012874     -0.386592
  O      -3.319670      1.628047     -0.620954
  C      -0.980238      1.734412     -0.258572
  O      -1.028477      3.099456     -0.378889
  C       0.220031      1.094796     -0.016487
  H       3.747447     -1.473729      1.654200
  H       4.525192     -0.081926      0.852346
  H       4.062456     -1.518701     -0.100518
  H      -0.917183     -2.120165      0.036092
  H      -1.955100      3.325339     -0.550151
  H       1.126511      1.677502      0.081672
  O      -6.079699     -1.168276     -1.004698
  H      -5.726073     -2.021943     -0.725395
  H      -6.859116     -1.019484     -0.454659
  O      -6.096855      1.643793     -1.177890
  H      -6.614045      1.357930     -1.941863
  H      -5.660571      2.460764     -1.453833
  O      -5.313148      0.428785      1.616156
  H      -4.675400     -0.190177      1.989452
  H      -4.965025      1.297952      1.847278
  O      -3.855416      0.206584     -3.392768
  H      -3.353854     -0.522486     -3.010210
  H      -3.450477      0.990935     -3.002807
32
Coordinates from ORCA-job cu_P2_cplx E -2630.078070201254
  Cu     -4.695823      0.271037     -0.690038
  C       3.792672     -0.879502      0.737087
  O       2.546162     -0.229286      0.497682
  C       1.483537     -1.029064      0.338041
  O       1.579662     -2.244012      0.401155
  C       0.237541     -0.300833      0.088827
  C      -0.944001     -1.041089     -0.041131
  C      -2.150432     -0.396125     -0.274619
  O      -3.316632     -1.028534     -0.411037
  C      -2.171022      1.011208     -0.386594
  O      -3.320594      1.626125     -0.622243
  C      -0.980900      1.732846     -0.261774
  O      -1.028714      3.097664     -0.385605
  C       0.219330      1.093195     -0.019672
  H       3.748400     -1.474684      1.650121
  H       4.524718     -0.082553      0.847833
  H       4.061251     -1.519009     -0.104847
  H      -0.918844     -2.121371      0.040522
  H      -1.955352      3.323498     -0.556663
  H       1.126220      1.675821      0.075933
  O      -6.081732     -1.168523     -1.000734
  H      -5.728078     -2.023441     -0.723504
  H      -6.860759     -1.021116     -0.449089
  O      -6.096153      1.641736     -1.180922
  H      -6.621400      1.346708     -1.935847
  H      -5.660507      2.452937     -1.472909
  O      -5.320844      0.429235      1.616861
  H      -4.686209     -0.189535      1.997359
  H      -4.976374      1.298984      1.851178
  O      -3.824689      0.219993     -3.400342
  H      -3.328109     -0.503711     -3.000969
  H      -3.447556      1.006465     -2.987980
32
Coordinates from ORCA-job cu_P2_cplx E -2630.078110192607
  Cu     -4.699548      0.266560     -0.680723
  C       3.793108     -0.879512      0.727110
  O       2.545605     -0.230861      0.488034
  C       1.481996     -1.031455      0.341406
  O       1.578115     -2.245934      0.415308
  C       0.235166     -0.304730      0.091528
  C      -0.947225     -1.045893     -0.030838
  C      -2.153762     -0.401498     -0.265523
  O      -3.321171     -1.033416     -0.398508
  C      -2.173203      1.005320     -0.387495
  O      -3.322337      1.619223     -0.627110
  C      -0.983007      1.727709     -0.269828
  O      -1.030595      3.091764     -0.403815
  C       0.217407      1.088946     -0.026394
  H       3.753015     -1.465619      1.646194
  H       4.526102     -0.081704      0.825300
  H       4.056963     -1.527673     -0.110079
  H      -0.922537     -2.125129      0.058007
  H      -1.957400      3.314888     -0.577002
  H       1.125081      1.671717      0.061988
  O      -6.089101     -1.168533     -0.998291
  H      -5.733829     -2.027033     -0.729244
  H      -6.864481     -1.024841     -0.438643
  O      -6.098946      1.636591     -1.185544
  H      -6.636775      1.329185     -1.927122
  H      -5.670470      2.441068     -1.500988
  O      -5.332230      0.429277      1.619022
  H      -4.704455     -0.191863      2.011384
  H      -4.993565      1.297986      1.864634
  O      -3.765686      0.261517     -3.405840
  H      -3.286429     -0.465730     -2.990051
  H      -3.421033      1.044734     -2.960798
32
Coordinates from ORCA-job cu_P2_cplx E -2630.078195583325
  Cu     -4.706600      0.262813     -0.664405
  C       3.789892     -0.879575      0.719659
  O       2.541592     -0.232523      0.480743
  C       1.477783     -1.034089      0.341683
  O       1.574380     -2.248048      0.422479
  C       0.230143     -0.308644      0.090903
  C      -0.953195     -1.050151     -0.020515
  C      -2.159964     -0.405931     -0.254918
  O      -3.328977     -1.037314     -0.380864
  C      -2.177643      0.999420     -0.391380
  O      -3.326440      1.612140     -0.636041
  C      -0.986649      1.722122     -0.285159
  O      -1.033214      3.084667     -0.433849
  C       0.213604      1.084100     -0.039672
  H       3.752650     -1.461301      1.641394
  H       4.523037     -0.081248      0.811833
  H       4.052028     -1.531437     -0.115199
  H      -0.928913     -2.128349      0.076669
  H      -1.960066      3.306638     -0.607578
  H       1.122355      1.666464      0.039790
  O      -6.098147     -1.166959     -0.989775
  H      -5.741160     -2.031639     -0.740348
  H      -6.868111     -1.033681     -0.418937
  O      -6.100300      1.631991     -1.189247
  H      -6.652462      1.308784     -1.913739
  H      -5.674554      2.424982     -1.533222
  O      -5.341977      0.426576      1.623732
  H      -4.721093     -0.197040      2.025628
  H      -5.009444      1.294008      1.882103
  O      -3.679947      0.313841     -3.417704
  H      -3.225313     -0.417615     -2.981370
  H      -3.398526      1.082059     -2.906615
32
Coordinates from ORCA-job cu_P2_cplx E -2630.078326706216
  Cu     -4.715356      0.258254     -0.641612
  C       3.785319     -0.879348      0.713198
  O       2.535910     -0.234680      0.473963
  C       1.472144     -1.037720      0.344346
  O       1.569487     -2.250898      0.434514
  C       0.223364     -0.314325      0.091508
  C      -0.961826     -1.056146     -0.000964
  C      -2.168744     -0.411754     -0.235259
  O      -3.340647     -1.042551     -0.348177
  C      -2.182836      0.990865     -0.398690
  O      -3.330443      1.601575     -0.654665
  C      -0.990248      1.713553     -0.311728
  O      -1.034853      3.073028     -0.487129
  C       0.209407      1.076759     -0.061491
  H       3.750950     -1.456853      1.637389
  H       4.518063     -0.080051      0.799802
  H       4.046540     -1.534485     -0.119487
  H      -0.938410     -2.132538      0.110467
  H      -1.961859      3.292572     -0.662316
  H       1.120447      1.657953      0.002593
  O      -6.114126     -1.162440     -0.975846
  H      -5.754908     -2.036367     -0.758307
  H      -6.873050     -1.045520     -0.384651
  O      -6.101726      1.625182     -1.196511
  H      -6.673098      1.276882     -1.894997
  H      -5.682521      2.399264     -1.584500
  O      -5.350050      0.418002      1.631510
  H      -4.743446     -0.217028      2.041598
  H      -5.022553      1.278902      1.917170
  O      -3.565975      0.409111     -3.429255
  H      -3.146284     -0.341904     -2.989970
  H      -3.373902      1.137771     -2.826422
32
Coordinates from ORCA-job cu_P2_cplx E -2630.078544295499
  Cu     -4.724849      0.245656     -0.633963
  C       3.770545     -0.870498      0.742546
  O       2.522788     -0.230961      0.485469
  C       1.460690     -1.038626      0.356587
  O       1.559793     -2.250564      0.461478
  C       0.212888     -0.320054      0.087708
  C      -0.972999     -1.062292      0.015159
  C      -2.180949     -0.420738     -0.223264
  O      -3.353764     -1.056377     -0.322603
  C      -2.192713      0.977485     -0.422499
  O      -3.339196      1.584743     -0.697580
  C      -0.997932      1.699551     -0.361454
  O      -1.041772      3.051348     -0.579459
  C       0.201375      1.067732     -0.099158
  H       3.725382     -1.451537      1.665682
  H       4.498815     -0.067636      0.842945
  H       4.048371     -1.522854     -0.087961
  H      -0.948902     -2.137946      0.151270
  H      -1.969309      3.265919     -0.758550
  H       1.115953      1.645745     -0.054314
  O      -6.143562     -1.158228     -0.949496
  H      -5.802730     -2.038120     -0.740511
  H      -6.898477     -1.029015     -0.358117
  O      -6.105408      1.627180     -1.196207
  H      -6.680116      1.268178     -1.886686
  H      -5.663942      2.379199     -1.609200
  O      -5.272041      0.375002      1.640675
  H      -4.656370     -0.274343      2.003467
  H      -4.954476      1.216820      1.988623
  O      -3.514539      0.550558     -3.426750
  H      -3.095533     -0.248044     -3.085446
  H      -3.402250      1.197782     -2.712313
32
Coordinates from ORCA-job cu_P2_cplx E -2630.078792939420
  Cu     -4.730146      0.239940     -0.614082
  C       3.770389     -0.874546      0.728666
  O       2.520297     -0.234289      0.485166
  C       1.457643     -1.041003      0.359342
  O       1.556024     -2.252932      0.461158
  C       0.208563     -0.321684      0.096361
  C      -0.977269     -1.063374      0.030129
  C      -2.184793     -0.422690     -0.212070
  O      -3.356374     -1.058343     -0.313439
  C      -2.196630      0.973553     -0.417488
  O      -3.344930      1.577214     -0.702395
  C      -1.002435      1.695307     -0.360814
  O      -1.043095      3.045951     -0.585786
  C       0.197044      1.063915     -0.095867
  H       3.732794     -1.459918      1.648758
  H       4.499208     -0.072281      0.826229
  H       4.040748     -1.522514     -0.107065
  H      -0.953968     -2.137249      0.170964
  H      -1.968746      3.264740     -0.768374
  H       1.110224      1.642746     -0.055274
  O      -6.143870     -1.165082     -0.929120
  H      -5.791727     -2.048353     -0.754060
  H      -6.886354     -1.057745     -0.319423
  O      -6.100424      1.620441     -1.198198
  H      -6.696146      1.251359     -1.865531
  H      -5.651589      2.350781     -1.638986
  O      -5.300554      0.392355      1.650387
  H      -4.694863     -0.254912      2.033346
  H      -4.985086      1.239072      1.988753
  O      -3.423354      0.617990     -3.479691
  H      -3.047899     -0.197856     -3.134809
  H      -3.407913      1.184468     -2.690708
32
Coordinates from ORCA-job cu_P2_cplx E -2630.078748184107
  Cu     -4.723190      0.244028     -0.645925
  C       3.772936     -0.880904      0.727583
  O       2.525232     -0.235698      0.484543
  C       1.457771     -1.036208      0.365064
  O       1.548537     -2.247474      0.470979
  C       0.211474     -0.311945      0.103172
  C      -0.972509     -1.051210      0.017442
  C      -2.179075     -0.412593     -0.233346
  O      -3.343296     -1.049335     -0.353869
  C      -2.194459      0.986272     -0.403341
  O      -3.346084      1.596039     -0.673335
  C      -1.001366      1.707404     -0.326242
  O      -1.040485      3.062650     -0.519270
  C       0.198798      1.073141     -0.066858
  H       3.738022     -1.452912      1.655340
  H       4.507414     -0.083268      0.808929
  H       4.031534     -1.542000     -0.099465
  H      -0.949063     -2.125927      0.146311
  H      -1.963980      3.291641     -0.701193
  H       1.107867      1.653920     -0.008966
  O      -6.113833     -1.184433     -0.934823
  H      -5.743467     -2.056391     -0.758710
  H      -6.850941     -1.083707     -0.325041
  O      -6.105697      1.620567     -1.183229
  H      -6.676296      1.288651     -1.889118
  H      -5.645325      2.389494     -1.546805
  O      -5.310289      0.419665      1.649878
  H      -4.704728     -0.229120      2.018269
  H      -4.943266      1.270647      1.921533
  O      -3.522072      0.534909     -3.511733
  H      -3.172699     -0.302348     -3.204975
  H      -3.392696      1.121510     -2.746720
32
Coordinates from ORCA-job cu_P2_cplx E -2630.079250418923
  Cu     -4.735931      0.233821     -0.620968
  C       3.763736     -0.883539      0.725580
  O       2.516181     -0.242379      0.468978
  C       1.446584     -1.041986      0.381529
  O       1.534379     -2.249312      0.523317
  C       0.200132     -0.320317      0.105893
  C      -0.986043     -1.058914      0.047076
  C      -2.192516     -0.420792     -0.207694
  O      -3.361219     -1.057246     -0.307614
  C      -2.201416      0.972759     -0.420954
  O      -3.350334      1.578035     -0.712042
  C      -1.006187      1.693013     -0.372814
  O      -1.041540      3.042180     -0.609149
  C       0.192495      1.060512     -0.102671
  H       3.733515     -1.422290      1.672023
  H       4.501702     -0.086998      0.773531
  H       4.014258     -1.573446     -0.080041
  H      -0.965804     -2.129180      0.204295
  H      -1.965849      3.266233     -0.793699
  H       1.104605      1.639407     -0.068141
  O      -6.130484     -1.190005     -0.913935
  H      -5.753315     -2.066934     -0.758756
  H      -6.857732     -1.106593     -0.284237
  O      -6.119977      1.599978     -1.175657
  H      -6.735722      1.236186     -1.827140
  H      -5.691577      2.347684     -1.607775
  O      -5.307601      0.403353      1.671712
  H      -4.720293     -0.270129      2.037811
  H      -4.926792      1.240893      1.964401
  O      -3.354129      0.729624     -3.523684
  H      -3.088515     -0.160076     -3.270907
  H      -3.309842      1.211521     -2.682187
32
Coordinates from ORCA-job cu_P2_cplx E -2630.079604796300
  Cu     -4.754405      0.207938     -0.601038
  C       3.756280     -0.881803      0.715782
  O       2.508955     -0.247894      0.439260
  C       1.436209     -1.048633      0.396961
  O       1.521654     -2.250817      0.587070
  C       0.189200     -0.333358      0.104561
  C      -0.997724     -1.073361      0.063647
  C      -2.204459     -0.439304     -0.201170
  O      -3.374819     -1.077765     -0.290627
  C      -2.213375      0.949711     -0.437391
  O      -3.363315      1.545677     -0.740548
  C      -1.019636      1.670957     -0.407901
  O      -1.055485      3.013728     -0.669847
  C       0.181296      1.043524     -0.134365
  H       3.731724     -1.373545      1.691232
  H       4.498426     -0.084743      0.716786
  H       3.996584     -1.614271     -0.058445
  H      -0.978469     -2.141504      0.247776
  H      -1.980983      3.230570     -0.856566
  H       1.094942      1.623203     -0.118170
  O      -6.156374     -1.214839     -0.881838
  H      -5.777136     -2.089748     -0.730650
  H      -6.879038     -1.130173     -0.244929
  O      -6.129721      1.579374     -1.177185
  H      -6.781299      1.207615     -1.786025
  H      -5.699798      2.296423     -1.659657
  O      -5.294318      0.402723      1.670300
  H      -4.703221     -0.264393      2.039209
  H      -4.932737      1.240735      1.981231
  O      -3.193877      0.914778     -3.502353
  H      -2.944383      0.004055     -3.302298
  H      -3.275931      1.310201     -2.616736
32
Coordinates from ORCA-job cu_P2_cplx E -2630.079809701427
  Cu     -4.754700      0.199700     -0.602163
  C       3.756440     -0.890410      0.704744
  O       2.508587     -0.256754      0.429049
  C       1.431769     -1.050784      0.421140
  O       1.512107     -2.247429      0.641810
  C       0.184685     -0.337081      0.123230
  C      -1.003744     -1.075397      0.093591
  C      -2.208501     -0.443121     -0.184393
  O      -3.378463     -1.082298     -0.269872
  C      -2.214695      0.944380     -0.439102
  O      -3.364922      1.538653     -0.754106
  C      -1.020089      1.663788     -0.417818
  O      -1.051231      3.003752     -0.696494
  C       0.179323      1.035963     -0.135439
  H       3.741892     -1.355476      1.691199
  H       4.501973     -0.099125      0.674589
  H       3.980747     -1.643230     -0.052342
  H      -0.986614     -2.139899      0.289715
  H      -1.975263      3.222886     -0.887710
  H       1.092912      1.615285     -0.126568
  O      -6.153472     -1.236368     -0.857728
  H      -5.764247     -2.107096     -0.703679
  H      -6.867112     -1.152176     -0.211051
  O      -6.134147      1.557955     -1.180000
  H      -6.816797      1.172316     -1.745888
  H      -5.727634      2.260339     -1.701001
  O      -5.304290      0.410268      1.668772
  H      -4.743814     -0.278508      2.044424
  H      -4.909116      1.236431      1.971214
  O      -3.121143      1.054111     -3.523379
  H      -2.955430      0.109326     -3.430079
  H      -3.230241      1.345065     -2.598587
32
Coordinates from ORCA-job cu_P2_cplx E -2630.079606981760
  Cu     -4.748895      0.177270     -0.624754
  C       3.764838     -0.914596      0.686365
  O       2.517411     -0.276814      0.416570
  C       1.434701     -1.057737      0.458153
  O       1.508163     -2.245652      0.720857
  C       0.188169     -0.345490      0.154074
  C      -1.000004     -1.084111      0.110062
  C      -2.200082     -0.456206     -0.195253
  O      -3.366848     -1.094205     -0.291622
  C      -2.210136      0.936910     -0.429664
  O      -3.365267      1.529607     -0.731500
  C      -1.017747      1.657620     -0.388530
  O      -1.046541      3.002616     -0.646033
  C       0.180829      1.027774     -0.099170
  H       3.769393     -1.333568      1.690819
  H       4.516762     -0.136531      0.602554
  H       3.957520     -1.702215     -0.040546
  H      -0.985270     -2.149402      0.301290
  H      -1.968777      3.229197     -0.838984
  H       1.090363      1.612159     -0.075097
  O      -6.121276     -1.306946     -0.814881
  H      -5.695209     -2.150268     -0.617072
  H      -6.823995     -1.211841     -0.160927
  O      -6.139002      1.513157     -1.180690
  H      -6.830844      1.139462     -1.739028
  H      -5.734109      2.225197     -1.695699
  O      -5.336200      0.459317      1.638757
  H      -4.767005     -0.202414      2.041603
  H      -4.931149      1.302571      1.868789
  O      -3.172814      1.157405     -3.615899
  H      -3.003666      0.211561     -3.579518
  H      -3.258544      1.461237     -2.688946
32
Coordinates from ORCA-job cu_P2_cplx E -2630.080111483244
  Cu     -4.754622      0.176253     -0.617550
  C       3.756634     -0.904065      0.707923
  O       2.510182     -0.270022      0.425015
  C       1.429212     -1.056713      0.450828
  O       1.504980     -2.246585      0.707862
  C       0.183581     -0.345835      0.140175
  C      -1.003893     -1.084844      0.103467
  C      -2.206086     -0.458275     -0.196313
  O      -3.374312     -1.097376     -0.283975
  C      -2.214920      0.930192     -0.445977
  O      -3.367877      1.520117     -0.757890
  C      -1.021582      1.650878     -0.416670
  O      -1.051968      2.991786     -0.692510
  C       0.177067      1.025834     -0.122236
  H       3.751630     -1.330086      1.712584
  H       4.507514     -0.120291      0.637884
  H       3.963696     -1.688055     -0.022513
  H      -0.987519     -2.149846      0.303453
  H      -1.975190      3.213635     -0.886133
  H       1.088590      1.607268     -0.105104
  O      -6.141447     -1.285322     -0.818661
  H      -5.730594     -2.139816     -0.634805
  H      -6.844397     -1.189114     -0.164269
  O      -6.143472      1.524207     -1.181338
  H      -6.828994      1.142328     -1.744526
  H      -5.735456      2.228219     -1.703102
  O      -5.295596      0.432331      1.671220
  H      -4.704946     -0.234937      2.037904
  H      -4.899784      1.273613      1.925921
  O      -3.136425      1.191461     -3.582115
  H      -2.994464      0.239778     -3.570823
  H      -3.254774      1.428348     -2.641649
32
Coordinates from ORCA-job cu_P2_cplx E -2630.080216131669
  Cu     -4.753423      0.167154     -0.624302
  C       3.755440     -0.903087      0.724132
  O       2.510477     -0.273240      0.426919
  C       1.428247     -1.058613      0.464012
  O       1.502735     -2.244783      0.738425
  C       0.183626     -0.351542      0.142543
  C      -1.004133     -1.090948      0.110380
  C      -2.205531     -0.466242     -0.196503
  O      -3.374035     -1.105914     -0.276400
  C      -2.213582      0.919550     -0.462769
  O      -3.365550      1.507954     -0.782182
  C      -1.019907      1.639733     -0.435494
  O      -1.049921      2.978398     -0.721991
  C       0.177907      1.018526     -0.132234
  H       3.746595     -1.314602      1.734984
  H       4.507196     -0.120317      0.646302
  H       3.965737     -1.697258      0.005513
  H      -0.988077     -2.154615      0.317194
  H      -1.973508      3.199391     -0.913470
  H       1.089822      1.600785     -0.116235
  O      -6.147823     -1.288439     -0.811536
  H      -5.743130     -2.147341     -0.634730
  H      -6.846456     -1.190048     -0.151620
  O      -6.148368      1.513927     -1.175009
  H      -6.829200      1.132595     -1.745500
  H      -5.748172      2.227108     -1.688525
  O      -5.264040      0.418248      1.673716
  H      -4.642512     -0.231239      2.021494
  H      -4.888297      1.270193      1.924120
  O      -3.145285      1.266447     -3.574946
  H      -3.047313      0.310443     -3.628863
  H      -3.264750      1.442841     -2.621347
32
Coordinates from ORCA-job cu_P2_cplx E -2630.080344773212
  Cu     -4.752964      0.150604     -0.615020
  C       3.756182     -0.902453      0.739924
  O       2.511856     -0.279530      0.425927
  C       1.429743     -1.064409      0.470103
  O       1.503455     -2.246400      0.759379
  C       0.185757     -0.362471      0.136723
  C      -1.000690     -1.103141      0.111045
  C      -2.203203     -0.482849     -0.200589
  O      -3.370658     -1.123056     -0.268974
  C      -2.212313      0.898759     -0.479776
  O      -3.364983      1.485555     -0.795357
  C      -1.018324      1.619647     -0.462723
  O      -1.050472      2.955404     -0.764166
  C       0.179597      1.005087     -0.149722
  H       3.741409     -1.302406      1.754531
  H       4.506592     -0.118963      0.659655
  H       3.973857     -1.703087      0.032171
  H      -0.983049     -2.164975      0.324163
  H      -1.975855      3.178217     -0.944283
  H       1.091166      1.587336     -0.135667
  O      -6.143593     -1.305126     -0.785014
  H      -5.760491     -2.151413     -0.520052
  H      -6.877854     -1.152470     -0.176880
  O      -6.140977      1.491740     -1.177818
  H      -6.869749      1.092926     -1.673868
  H      -5.751485      2.145234     -1.771540
  O      -5.260731      0.407496      1.677839
  H      -4.621230     -0.225323      2.025108
  H      -4.906382      1.269140      1.929502
  O      -3.097972      1.409814     -3.576735
  H      -3.070799      0.455737     -3.695688
  H      -3.241070      1.510445     -2.616120
32
Coordinates from ORCA-job cu_P2_cplx E -2630.080457471878
  Cu     -4.742331      0.135336     -0.635003
  C       3.760545     -0.910854      0.768930
  O       2.520204     -0.291835      0.433158
  C       1.434908     -1.070623      0.494611
  O       1.504544     -2.245504      0.811181
  C       0.193538     -0.372809      0.145271
  C      -0.992939     -1.114032      0.122512
  C      -2.193397     -0.498378     -0.205519
  O      -3.362006     -1.134239     -0.258975
  C      -2.201884      0.878844     -0.499977
  O      -3.354753      1.467456     -0.808634
  C      -1.007602      1.601845     -0.480289
  O      -1.039294      2.938135     -0.786190
  C       0.188549      0.992306     -0.153897
  H       3.742356     -1.281121      1.793915
  H       4.515020     -0.134335      0.669276
  H       3.977491     -1.731419      0.085097
  H      -0.976345     -2.174627      0.343888
  H      -1.964523      3.164575     -0.960491
  H       1.099062      1.576557     -0.133741
  O      -6.136529     -1.320108     -0.770275
  H      -5.741585     -2.172320     -0.542588
  H      -6.839926     -1.184643     -0.122212
  O      -6.143206      1.461308     -1.175273
  H      -6.837959      1.066322     -1.720284
  H      -5.755034      2.157514     -1.720181
  O      -5.245640      0.414681      1.690335
  H      -4.565688     -0.192974      2.008418
  H      -4.889025      1.289869      1.888412
  O      -3.190148      1.522616     -3.605022
  H      -3.242129      0.583633     -3.803978
  H      -3.309505      1.553889     -2.636398
32
Coordinates from ORCA-job cu_P2_cplx E -2630.080581571602
  Cu     -4.726407      0.126039     -0.655189
  C       3.776175     -0.913625      0.770584
  O       2.536134     -0.296760      0.430942
  C       1.448406     -1.072522      0.512867
  O       1.517545     -2.243436      0.849082
  C       0.207468     -0.377226      0.158973
  C      -0.978608     -1.120768      0.128420
  C      -2.177608     -0.506969     -0.207842
  O      -3.346296     -1.143176     -0.266641
  C      -2.188413      0.872543     -0.499936
  O      -3.341697      1.459041     -0.810030
  C      -0.996626      1.598114     -0.468580
  O      -1.028593      2.936268     -0.765563
  C       0.199889      0.989933     -0.138811
  H       3.760029     -1.268479      1.803171
  H       4.532507     -0.139032      0.654756
  H       3.988390     -1.747148      0.097934
  H      -0.963227     -2.182410      0.351841
  H      -1.953519      3.160578     -0.945071
  H       1.109595      1.576366     -0.114176
  O      -6.121028     -1.333114     -0.788545
  H      -5.746303     -2.162622     -0.467578
  H      -6.874373     -1.148377     -0.210898
  O      -6.135741      1.460842     -1.186872
  H      -6.859287      1.063369     -1.691133
  H      -5.760762      2.130109     -1.773031
  O      -5.240365      0.429923      1.668027
  H      -4.582100     -0.199456      1.988192
  H      -4.864041      1.291142      1.883755
  O      -3.282392      1.544658     -3.608448
  H      -3.372649      0.612221     -3.831141
  H      -3.331332      1.579038     -2.632980
32
Coordinates from ORCA-job cu_P2_cplx E -2630.080695307255
  Cu     -4.723334      0.114714     -0.652381
  C       3.778099     -0.910608      0.781595
  O       2.537724     -0.298076      0.436758
  C       1.451884     -1.075679      0.518043
  O       1.522923     -2.244167      0.859271
  C       0.210415     -0.383663      0.158301
  C      -0.974193     -1.128695      0.131749
  C      -2.174164     -0.517841     -0.207333
  O      -3.343544     -1.155380     -0.262495
  C      -2.185358      0.860288     -0.507478
  O      -3.339503      1.445837     -0.820814
  C      -0.994538      1.587149     -0.481308
  O      -1.027976      2.922679     -0.787056
  C       0.202123      0.981409     -0.147202
  H       3.758126     -1.268367      1.812157
  H       4.532067     -0.133814      0.672167
  H       3.997460     -1.740909      0.108411
  H      -0.957582     -2.188244      0.361429
  H      -1.953681      3.145941     -0.964900
  H       1.111468      1.567808     -0.125791
  O      -6.116588     -1.342319     -0.778764
  H      -5.761936     -2.162447     -0.412500
  H      -6.890776     -1.132313     -0.240071
  O      -6.129166      1.455086     -1.189809
  H      -6.870931      1.056002     -1.664400
  H      -5.752036      2.096609     -1.805815
  O      -5.231824      0.422025      1.666350
  H      -4.558350     -0.192764      1.982123
  H      -4.873281      1.291184      1.881308
  O      -3.289480      1.606151     -3.605628
  H      -3.415903      0.684403     -3.851314
  H      -3.333375      1.613065     -2.628527
32
Coordinates from ORCA-job cu_P2_cplx E -2630.080898834696
  Cu     -4.711968      0.095302     -0.647755
  C       3.786174     -0.905215      0.810710
  O       2.547093     -0.303638      0.443313
  C       1.464391     -1.084508      0.524051
  O       1.537399     -2.247723      0.878547
  C       0.222623     -0.398750      0.150281
  C      -0.960363     -1.145297      0.135927
  C      -2.162487     -0.538410     -0.203821
  O      -3.334077     -1.175117     -0.247145
  C      -2.172309      0.835196     -0.519776
  O      -3.327721      1.422058     -0.831183
  C      -0.982789      1.564546     -0.507590
  O      -1.018996      2.895452     -0.828268
  C       0.214558      0.961149     -0.172302
  H       3.754984     -1.255456      1.842622
  H       4.536732     -0.125808      0.705590
  H       4.020887     -1.738849      0.148059
  H      -0.941852     -2.200032      0.381403
  H      -1.945829      3.116602     -1.002593
  H       1.124205      1.546673     -0.159711
  O      -6.104151     -1.358846     -0.765473
  H      -5.786856     -2.161049     -0.328929
  H      -6.906403     -1.110294     -0.289520
  O      -6.106573      1.441472     -1.208730
  H      -6.872694      1.038369     -1.638344
  H      -5.724770      2.036335     -1.867914
  O      -5.233534      0.418696      1.661536
  H      -4.548976     -0.185814      1.971465
  H      -4.879708      1.294542      1.860058
  O      -3.353235      1.727956     -3.585917
  H      -3.564854      0.832833     -3.864871
  H      -3.364134      1.682687     -2.607642
32
Coordinates from ORCA-job cu_P2_cplx E -2630.081125322855
  Cu     -4.694266      0.081773     -0.641979
  C       3.802346     -0.907087      0.827677
  O       2.563916     -0.312178      0.448533
  C       1.482536     -1.095165      0.529607
  O       1.555922     -2.255682      0.890637
  C       0.240045     -0.412208      0.149789
  C      -0.943026     -1.157567      0.150056
  C      -2.146005     -0.551786     -0.190085
  O      -3.319619     -1.186635     -0.223510
  C      -2.152879      0.817981     -0.520460
  O      -3.309096      1.407766     -0.826731
  C      -0.963329      1.547608     -0.521939
  O      -0.999675      2.875533     -0.852945
  C       0.234190      0.942599     -0.189432
  H       3.765506     -1.252443      1.860373
  H       4.551539     -0.126610      0.723542
  H       4.044928     -1.742805      0.171438
  H      -0.924097     -2.207559      0.410380
  H      -1.926477      3.096346     -1.026489
  H       1.144214      1.526969     -0.187009
  O      -6.082209     -1.376143     -0.764565
  H      -5.783643     -2.164082     -0.288703
  H      -6.903593     -1.114754     -0.329610
  O      -6.074010      1.428105     -1.248195
  H      -6.855164      1.017322     -1.642981
  H      -5.687349      1.979515     -1.941259
  O      -5.270902      0.441381      1.643663
  H      -4.602143     -0.168438      1.976087
  H      -4.908242      1.317353      1.829367
  O      -3.461204      1.825881     -3.556047
  H      -3.761150      0.959796     -3.842042
  H      -3.412294      1.740278     -2.581088
32
Coordinates from ORCA-job cu_P2_cplx E -2630.081462092242
  Cu     -4.669059      0.067343     -0.631524
  C       3.829857     -0.918178      0.824619
  O       2.591063     -0.327012      0.441176
  C       1.508814     -1.108404      0.533980
  O       1.580696     -2.265707      0.905446
  C       0.264655     -0.425543      0.154322
  C      -0.920533     -1.166160      0.178882
  C      -2.123614     -0.560452     -0.162857
  O      -3.299081     -1.193876     -0.186931
  C      -2.126146      0.805079     -0.508046
  O      -3.283045      1.398445     -0.803841
  C      -0.934842      1.532246     -0.530912
  O      -0.969928      2.857310     -0.874229
  C       0.263126      0.922035     -0.207826
  H       3.796221     -1.247833      1.862834
  H       4.580923     -0.141031      0.705338
  H       4.068804     -1.764253      0.180064
  H      -0.902143     -2.210273      0.459693
  H      -1.896467      3.076368     -1.050312
  H       1.174290      1.504038     -0.224037
  O      -6.046465     -1.404164     -0.767062
  H      -5.758414     -2.173244     -0.254706
  H      -6.886965     -1.139690     -0.371222
  O      -6.026487      1.398546     -1.328293
  H      -6.829183      0.976255     -1.664589
  H      -5.642676      1.879612     -2.073530
  O      -5.365464      0.492953      1.599773
  H      -4.758482     -0.132778      2.011619
  H      -4.988427      1.363390      1.785521
  O      -3.584208      1.946604     -3.485615
  H      -3.990099      1.120451     -3.758186
  H      -3.451951      1.812988     -2.523468
32
Coordinates from ORCA-job cu_P2_cplx E -2630.081416451455
  Cu     -4.650311      0.052877     -0.626473
  C       3.851764     -0.938389      0.804913
  O       2.612831     -0.345041      0.425419
  C       1.526142     -1.118319      0.541504
  O       1.593378     -2.271359      0.929489
  C       0.281696     -0.432279      0.164351
  C      -0.906421     -1.166087      0.205381
  C      -2.107982     -0.559660     -0.141013
  O      -3.282918     -1.195368     -0.165629
  C      -2.108439      0.804867     -0.490782
  O      -3.266262      1.397349     -0.778874
  C      -0.913912      1.525864     -0.529515
  O      -0.945782      2.850370     -0.880229
  C       0.284190      0.909971     -0.213683
  H       3.829870     -1.239921      1.853181
  H       4.609176     -0.171283      0.653852
  H       4.073023     -1.803833      0.178413
  H      -0.890319     -2.206445      0.502404
  H      -1.871105      3.066497     -1.067372
  H       1.195555      1.490276     -0.245527
  O      -6.009390     -1.439576     -0.777649
  H      -5.701259     -2.196627     -0.260131
  H      -6.857774     -1.194680     -0.384237
  O      -5.997451      1.356405     -1.403354
  H      -6.807274      0.926829     -1.712121
  H      -5.615927      1.800367     -2.172679
  O      -5.447152      0.551065      1.550188
  H      -4.895387     -0.060552      2.051988
  H      -5.085359      1.427757      1.732778
  O      -3.681190      2.039173     -3.399293
  H      -4.155685      1.241324     -3.650328
  H      -3.455557      1.873491     -2.458894
32
Coordinates from ORCA-job cu_P2_cplx E -2630.081455224768
  Cu     -4.658371      0.074604     -0.638517
  C       3.843053     -0.955670      0.780232
  O       2.605948     -0.343277      0.423715
  C       1.512575     -1.109480      0.535922
  O       1.572477     -2.270932      0.906252
  C       0.272082     -0.410958      0.172399
  C      -0.919846     -1.139715      0.189548
  C      -2.117321     -0.524487     -0.152539
  O      -3.286223     -1.166012     -0.202363
  C      -2.119533      0.847557     -0.471759
  O      -3.273918      1.433626     -0.765046
  C      -0.920753      1.561845     -0.486729
  O      -0.946304      2.894951     -0.810965
  C       0.276228      0.940076     -0.175618
  H       3.834509     -1.253374      1.831934
  H       4.608789     -0.197598      0.613515
  H       4.038520     -1.827024      0.150830
  H      -0.909524     -2.188587      0.466985
  H      -1.868375      3.113433     -1.012873
  H       1.187121      1.522684     -0.193653
  O      -6.003522     -1.427515     -0.817645
  H      -5.669441     -2.186250     -0.325416
  H      -6.856118     -1.210192     -0.414235
  O      -6.034333      1.365137     -1.378366
  H      -6.829949      0.931461     -1.713373
  H      -5.674952      1.875279     -2.117182
  O      -5.405686      0.551929      1.551424
  H      -4.869743     -0.043083      2.089492
  H      -5.074714      1.432262      1.758382
  O      -3.660711      1.875667     -3.423975
  H      -4.058436      1.024255     -3.648898
  H      -3.388759      1.784451     -2.485401
32
Coordinates from ORCA-job cu_P2_cplx E -2630.081828417708
  Cu     -4.657917      0.072805     -0.649078
  C       3.841608     -0.943607      0.805781
  O       2.603330     -0.334231      0.449043
  C       1.515310     -1.107100      0.543017
  O       1.582505     -2.270350      0.900362
  C       0.274046     -0.415587      0.179216
  C      -0.916685     -1.149723      0.192095
  C      -2.115627     -0.537322     -0.147972
  O      -3.285759     -1.176790     -0.182348
  C      -2.120824      0.831488     -0.484251
  O      -3.277262      1.415748     -0.789757
  C      -0.923644      1.548974     -0.492791
  O      -0.949182      2.878499     -0.824129
  C       0.273199      0.939035     -0.165531
  H       3.819034     -1.284577      1.841502
  H       4.597822     -0.170597      0.687472
  H       4.061360     -1.783890      0.146374
  H      -0.902924     -2.201533      0.450032
  H      -1.873036      3.109230     -0.999496
  H       1.185533      1.522329     -0.173140
  O      -6.019158     -1.410606     -0.778174
  H      -5.731288     -2.165749     -0.248911
  H      -6.867224     -1.141867     -0.400391
  O      -6.019692      1.383037     -1.366263
  H      -6.820970      0.964721     -1.708364
  H      -5.632615      1.861602     -2.112099
  O      -5.358769      0.515939      1.561708
  H      -4.787978     -0.104096      2.031756
  H      -5.000702      1.384988      1.778911
  O      -3.698755      1.902332     -3.489685
  H      -4.102521      1.076497     -3.776735
  H      -3.486444      1.765461     -2.542073
32
Coordinates from ORCA-job cu_P2_cplx E -2630.082064699498
  Cu     -4.654825      0.072527     -0.634329
  C       3.850577     -0.949303      0.780770
  O       2.609138     -0.336598      0.439734
  C       1.521992     -1.110897      0.533747
  O       1.591031     -2.276867      0.882703
  C       0.278466     -0.416563      0.180816
  C      -0.912966     -1.149419      0.203875
  C      -2.113340     -0.535853     -0.129383
  O      -3.285172     -1.173499     -0.163284
  C      -2.117095      0.833366     -0.462156
  O      -3.273066      1.419714     -0.760696
  C      -0.919735      1.550688     -0.483227
  O      -0.948396      2.879215     -0.820592
  C       0.278154      0.936705     -0.166222
  H       3.837652     -1.294818      1.815225
  H       4.606487     -0.176762      0.657224
  H       4.062047     -1.787126      0.115261
  H      -0.897564     -2.199767      0.467177
  H      -1.873589      3.101945     -0.999941
  H       1.191628      1.515848     -0.184732
  O      -6.013130     -1.417795     -0.785099
  H      -5.704029     -2.179456     -0.276310
  H      -6.853515     -1.167318     -0.379235
  O      -5.999919      1.367404     -1.421128
  H      -6.788221      0.935622     -1.775051
  H      -5.599307      1.835493     -2.168958
  O      -5.423725      0.551186      1.545039
  H      -4.878595     -0.058738      2.056686
  H      -5.071464      1.426118      1.749416
  O      -3.720706      1.912607     -3.422429
  H      -4.106501      1.068781     -3.676183
  H      -3.467543      1.798624     -2.482637
32
Coordinates from ORCA-job cu_P2_cplx E -2630.082128247766
  Cu     -4.656121      0.069674     -0.632610
  C       3.850076     -0.951088      0.777769
  O       2.608317     -0.336366      0.439305
  C       1.520286     -1.109666      0.535811
  O       1.588447     -2.275982      0.886106
  C       0.277337     -0.414755      0.181811
  C      -0.913644     -1.147781      0.204101
  C      -2.114679     -0.534746     -0.126712
  O      -3.286304     -1.172720     -0.160492
  C      -2.119147      0.834759     -0.460037
  O      -3.274684      1.420102     -0.763193
  C      -0.921571      1.551340     -0.483958
  O      -0.950878      2.878487     -0.826383
  C       0.276335      0.938679     -0.165255
  H       3.840795     -1.290737      1.814938
  H       4.607409     -0.180501      0.645217
  H       4.055345     -1.794181      0.115725
  H      -0.898966     -2.198225      0.471330
  H      -1.876683      3.098683     -1.006879
  H       1.190725      1.516000     -0.186691
  O      -6.006254     -1.427862     -0.790281
  H      -5.719314     -2.161183     -0.231135
  H      -6.868200     -1.162736     -0.441384
  O      -6.002316      1.354361     -1.430031
  H      -6.807904      0.924934     -1.744071
  H      -5.618274      1.790775     -2.207631
  O      -5.411352      0.549659      1.545949
  H      -4.868970     -0.060496      2.059894
  H      -5.056503      1.422888      1.751265
  O      -3.711989      1.937343     -3.409003
  H      -4.089071      1.085232     -3.652703
  H      -3.437475      1.821172     -2.474694
32
Coordinates from ORCA-job cu_P2_cplx E -2630.082316812545
  Cu     -4.658747      0.067977     -0.622386
  C       3.851785     -0.960093      0.763608
  O       2.609149     -0.338890      0.439137
  C       1.521115     -1.112188      0.531740
  O       1.590119     -2.282316      0.870574
  C       0.277618     -0.413487      0.187231
  C      -0.914152     -1.143923      0.213414
  C      -2.116760     -0.528995     -0.108315
  O      -3.288838     -1.167338     -0.136639
  C      -2.121839      0.840391     -0.442090
  O      -3.278169      1.423264     -0.745246
  C      -0.922421      1.552625     -0.473310
  O      -0.950082      2.878408     -0.819072
  C       0.276105      0.940772     -0.157065
  H       3.849292     -1.308609      1.798454
  H       4.609988     -0.189759      0.632543
  H       4.049892     -1.798383      0.092384
  H      -0.900465     -2.195765      0.477382
  H      -1.876194      3.101904     -0.995690
  H       1.191940      1.515885     -0.184452
  O      -6.000574     -1.437198     -0.781347
  H      -5.686188     -2.181237     -0.251720
  H      -6.853809     -1.191643     -0.398042
  O      -5.989650      1.338177     -1.459478
  H      -6.776048      0.903227     -1.811005
  H      -5.569766      1.779231     -2.216931
  O      -5.437272      0.569922      1.530083
  H      -4.897645     -0.025072      2.064874
  H      -5.088732      1.448249      1.721493
  O      -3.758871      1.954474     -3.388938
  H      -4.090322      1.081604     -3.631045
  H      -3.445691      1.853848     -2.464068
32
Coordinates from ORCA-job cu_P2_cplx E -2630.082605269693
  Cu     -4.656702      0.067428     -0.623821
  C       3.856198     -0.963993      0.761239
  O       2.611679     -0.336385      0.457850
  C       1.525881     -1.114183      0.531060
  O       1.598692     -2.290519      0.845059
  C       0.282432     -0.412583      0.196752
  C      -0.910166     -1.142190      0.221612
  C      -2.113747     -0.525737     -0.093550
  O      -3.286362     -1.161640     -0.114532
  C      -2.119400      0.842603     -0.429865
  O      -3.274247      1.423529     -0.737305
  C      -0.918323      1.552404     -0.461414
  O      -0.943823      2.876911     -0.812053
  C       0.280068      0.944562     -0.141523
  H       3.858373     -1.342828      1.784377
  H       4.611624     -0.189269      0.651595
  H       4.054064     -1.781153      0.066022
  H      -0.897892     -2.196473      0.475783
  H      -1.870192      3.105414     -0.981403
  H       1.197990      1.516682     -0.169006
  O      -5.995991     -1.437507     -0.779664
  H      -5.692002     -2.177575     -0.238924
  H      -6.856144     -1.189094     -0.417990
  O      -5.976099      1.335098     -1.482022
  H      -6.743663      0.893189     -1.863363
  H      -5.522391      1.771692     -2.224805
  O      -5.435454      0.583923      1.515613
  H      -4.893934     -0.004400      2.055156
  H      -5.085406      1.460822      1.708564
  O      -3.857993      1.953070     -3.370333
  H      -4.137095      1.065743     -3.624967
  H      -3.485204      1.847521     -2.468062
32
Coordinates from ORCA-job cu_P2_cplx E -2630.082906882846
  Cu     -4.665523      0.059302     -0.627985
  C       3.851393     -0.959317      0.758291
  O       2.602994     -0.329139      0.476393
  C       1.520260     -1.111859      0.540467
  O       1.598341     -2.290758      0.840465
  C       0.275625     -0.412991      0.211734
  C      -0.917198     -1.145657      0.241170
  C      -2.121135     -0.532350     -0.077867
  O      -3.294775     -1.162875     -0.085950
  C      -2.127519      0.833790     -0.427139
  O      -3.280582      1.413259     -0.746546
  C      -0.926637      1.545116     -0.463073
  O      -0.952261      2.863930     -0.832839
  C       0.271576      0.944698     -0.133408
  H       3.864365     -1.357049      1.772571
  H       4.602647     -0.181909      0.655995
  H       4.043584     -1.762714      0.048223
  H      -0.905176     -2.200243      0.491863
  H      -1.879379      3.095033     -0.992120
  H       1.192661      1.511801     -0.163924
  O      -6.007489     -1.445573     -0.760687
  H      -5.714533     -2.179177     -0.205458
  H      -6.868784     -1.186940     -0.413873
  O      -5.975618      1.328358     -1.488156
  H      -6.725936      0.877720     -1.891084
  H      -5.491709      1.755340     -2.223866
  O      -5.406480      0.577130      1.522186
  H      -4.845275     -0.016767      2.034404
  H      -5.039169      1.448955      1.710247
  O      -3.885660      2.004213     -3.373834
  H      -4.084955      1.114787     -3.681591
  H      -3.502884      1.876947     -2.478532
32
Coordinates from ORCA-job cu_P2_cplx E -2630.083462178258
  Cu     -4.668189      0.047596     -0.625602
  C       3.855022     -0.961306      0.745328
  O       2.602416     -0.326513      0.490219
  C       1.522211     -1.114403      0.543686
  O       1.605029     -2.298531      0.822972
  C       0.275358     -0.415689      0.226815
  C      -0.917843     -1.149491      0.265052
  C      -2.123243     -0.537069     -0.050134
  O      -3.298949     -1.161267     -0.044537
  C      -2.129368      0.827301     -0.411282
  O      -3.280561      1.404977     -0.739821
  C      -0.928514      1.538427     -0.457156
  O      -0.955123      2.851006     -0.844381
  C       0.269983      0.941195     -0.124273
  H       3.881782     -1.375394      1.752698
  H       4.603508     -0.181674      0.643191
  H       4.035746     -1.754242      0.020854
  H      -0.906824     -2.203683      0.517648
  H      -1.882889      3.082696     -0.998202
  H       1.194125      1.501902     -0.163472
  O      -6.005315     -1.463179     -0.748809
  H      -5.723062     -2.185960     -0.174357
  H      -6.872957     -1.196769     -0.426173
  O      -5.957134      1.304757     -1.526315
  H      -6.683942      0.836412     -1.951961
  H      -5.432287      1.705224     -2.257123
  O      -5.410719      0.596914      1.506349
  H      -4.852574      0.014616      2.033979
  H      -5.043173      1.472026      1.683688
  O      -3.988950      2.065359     -3.320494
  H      -4.058855      1.178740     -3.685822
  H      -3.519939      1.931083     -2.466487
32
Coordinates from ORCA-job cu_P2_cplx E -2630.083985644832
  Cu     -4.663208      0.026536     -0.638315
  C       3.859883     -0.957408      0.771174
  O       2.607569     -0.330314      0.491735
  C       1.528109     -1.121260      0.549073
  O       1.610500     -2.303524      0.843014
  C       0.279916     -0.428197      0.218489
  C      -0.911832     -1.162783      0.264505
  C      -2.117808     -0.551745     -0.052830
  O      -3.298134     -1.167722     -0.032424
  C      -2.119242      0.808680     -0.432437
  O      -3.268222      1.386532     -0.764752
  C      -0.921452      1.523299     -0.485332
  O      -0.949833      2.832175     -0.880641
  C       0.276164      0.920194     -0.149834
  H       3.882904     -1.332297      1.795406
  H       4.610108     -0.182226      0.635133
  H       4.039404     -1.780570      0.078372
  H      -0.902592     -2.210375      0.543967
  H      -1.876424      3.058404     -1.048017
  H       1.198742      1.480311     -0.193921
  O      -5.998169     -1.483683     -0.754101
  H      -5.726238     -2.210540     -0.179000
  H      -6.869714     -1.209382     -0.443425
  O      -5.963502      1.281484     -1.513277
  H      -6.674184      0.793583     -1.951324
  H      -5.440936      1.700529     -2.244171
  O      -5.397168      0.612275      1.511179
  H      -4.855678      0.037001      2.061174
  H      -5.024259      1.490762      1.666042
  O      -4.115305      2.153711     -3.233139
  H      -4.078602      1.326401     -3.724994
  H      -3.516024      1.975215     -2.471251
32
Coordinates from ORCA-job cu_P2_cplx E -2630.084420503014
  Cu     -4.659514      0.011122     -0.656714
  C       3.855500     -0.949362      0.816785
  O       2.608611     -0.338598      0.484431
  C       1.527194     -1.126967      0.557925
  O       1.604531     -2.299166      0.893813
  C       0.280172     -0.441947      0.196964
  C      -0.911912     -1.173043      0.254479
  C      -2.115498     -0.564554     -0.076977
  O      -3.299119     -1.175885     -0.047998
  C      -2.110584      0.791407     -0.478678
  O      -3.261708      1.369137     -0.805891
  C      -0.913611      1.505736     -0.539731
  O      -0.937710      2.814205     -0.942581
  C       0.282217      0.894270     -0.201121
  H       3.858128     -1.269600      1.861197
  H       4.610724     -0.181634      0.652748
  H       4.048935     -1.808775      0.170502
  H      -0.904110     -2.210997      0.571044
  H      -1.861093      3.034538     -1.133036
  H       1.201699      1.459015     -0.253110
  O      -6.002656     -1.495101     -0.751012
  H      -5.723568     -2.232590     -0.194001
  H      -6.865018     -1.214176     -0.413082
  O      -5.979684      1.261816     -1.501385
  H      -6.698326      0.770596     -1.923942
  H      -5.477716      1.688158     -2.245167
  O      -5.353517      0.607128      1.540499
  H      -4.840077     -0.004881      2.077946
  H      -4.942431      1.466504      1.696393
  O      -4.130815      2.273244     -3.199271
  H      -4.083954      1.493123     -3.767393
  H      -3.600319      2.022341     -2.407558
32
Coordinates from ORCA-job cu_P2_cplx E -2630.084834554543
  Cu     -4.665252     -0.005939     -0.653901
  C       3.855811     -0.945231      0.820329
  O       2.607550     -0.343288      0.484800
  C       1.527864     -1.132865      0.561806
  O       1.608378     -2.300688      0.904715
  C       0.280536     -0.451002      0.199172
  C      -0.914345     -1.178878      0.269314
  C      -2.118021     -0.573672     -0.067121
  O      -3.300019     -1.185315     -0.029976
  C      -2.112609      0.776459     -0.484789
  O      -3.265075      1.346099     -0.815670
  C      -0.914632      1.487517     -0.549875
  O      -0.933445      2.795077     -0.961262
  C       0.283430      0.882946     -0.212872
  H       3.856245     -1.272223      1.860906
  H       4.606951     -0.172878      0.670470
  H       4.062145     -1.795756      0.169961
  H      -0.904799     -2.214139      0.589140
  H      -1.856869      3.020400     -1.141819
  H       1.203074      1.451229     -0.275687
  O      -6.003679     -1.514044     -0.733486
  H      -5.719634     -2.261208     -0.192970
  H      -6.861880     -1.243200     -0.381926
  O      -5.990356      1.243278     -1.500530
  H      -6.698571      0.764594     -1.947676
  H      -5.462130      1.684100     -2.217340
  O      -5.355139      0.625165      1.534667
  H      -4.838594      0.018276      2.077435
  H      -4.938809      1.482454      1.677023
  O      -4.178804      2.312742     -3.178117
  H      -4.052522      1.604451     -3.818796
  H      -3.602029      2.070603     -2.419845
32
Coordinates from ORCA-job cu_P2_cplx E -2630.085011695609
  Cu     -4.658019     -0.005019     -0.663297
  C       3.859673     -0.958321      0.823261
  O       2.614465     -0.355972      0.481934
  C       1.529581     -1.137377      0.573416
  O       1.603847     -2.301148      0.929620
  C       0.286094     -0.452841      0.207620
  C      -0.913572     -1.172967      0.282696
  C      -2.113321     -0.566087     -0.062124
  O      -3.294137     -1.176198     -0.021990
  C      -2.104155      0.777867     -0.495101
  O      -3.256542      1.345359     -0.834082
  C      -0.902971      1.483810     -0.550549
  O      -0.912684      2.793965     -0.955020
  C       0.293125      0.879500     -0.209716
  H       3.859204     -1.274155      1.866861
  H       4.614533     -0.190528      0.668827
  H       4.064808     -1.814098      0.180575
  H      -0.906011     -2.205835      0.605629
  H      -1.834198      3.029040     -1.129517
  H       1.210125      1.452171     -0.267301
  O      -5.986515     -1.523929     -0.737449
  H      -5.686871     -2.278698     -0.215776
  H      -6.843485     -1.274090     -0.369451
  O      -6.003922      1.223325     -1.503351
  H      -6.716520      0.742153     -1.941880
  H      -5.505203      1.696652     -2.218985
  O      -5.346606      0.647002      1.518719
  H      -4.844810      0.033613      2.068662
  H      -4.910210      1.498458      1.641631
  O      -4.236146      2.336501     -3.160699
  H      -4.099180      1.680954     -3.850956
  H      -3.655607      2.041958     -2.426127
32
Coordinates from ORCA-job cu_P2_cplx E -2630.084980592940
  Cu     -4.654796     -0.021945     -0.661735
  C       3.859454     -0.964668      0.833067
  O       2.618202     -0.371776      0.465808
  C       1.529323     -1.142792      0.588279
  O       1.598146     -2.294315      0.982712
  C       0.289384     -0.463870      0.204433
  C      -0.911610     -1.179124      0.287654
  C      -2.110016     -0.577305     -0.068833
  O      -3.288952     -1.190086     -0.020793
  C      -2.101673      0.758366     -0.519479
  O      -3.257246      1.323432     -0.857814
  C      -0.899715      1.462456     -0.577561
  O      -0.909114      2.771887     -0.986100
  C       0.295843      0.863316     -0.226905
  H       3.850961     -1.249613      1.885169
  H       4.616741     -0.201987      0.664969
  H       4.070077     -1.837134      0.215412
  H      -0.900592     -2.206037      0.625791
  H      -1.831645      3.009775     -1.154667
  H       1.207354      1.441109     -0.280131
  O      -5.971421     -1.557670     -0.719668
  H      -5.649378     -2.313083     -0.209725
  H      -6.821152     -1.324452     -0.326344
  O      -6.019159      1.182151     -1.503141
  H      -6.746222      0.696022     -1.913501
  H      -5.563275      1.670895     -2.234295
  O      -5.350825      0.672143      1.506021
  H      -4.832856      0.072065      2.054294
  H      -4.918975      1.532928      1.581174
  O      -4.257163      2.430643     -3.099312
  H      -4.114956      1.877843     -3.871864
  H      -3.619977      2.105888     -2.426836
32
Coordinates from ORCA-job cu_P2_cplx E -2630.085311350786
  Cu     -4.657819     -0.037388     -0.662605
  C       3.852551     -0.959424      0.852496
  O       2.612842     -0.365296      0.480684
  C       1.526437     -1.141140      0.591467
  O       1.598055     -2.293511      0.985029
  C       0.287018     -0.466029      0.198609
  C      -0.910553     -1.185319      0.280960
  C      -2.111822     -0.587744     -0.074161
  O      -3.291311     -1.201793     -0.018800
  C      -2.107426      0.747378     -0.529454
  O      -3.264427      1.308700     -0.869307
  C      -0.906381      1.454086     -0.600715
  O      -0.921377      2.756893     -1.033617
  C       0.289269      0.860681     -0.237385
  H       3.837886     -1.252886      1.902789
  H       4.608935     -0.193581      0.694694
  H       4.068450     -1.828480      0.229902
  H      -0.897025     -2.212247      0.627310
  H      -1.845849      2.989098     -1.207864
  H       1.202896      1.434424     -0.295936
  O      -5.982224     -1.562983     -0.711829
  H      -5.664896     -2.314437     -0.193997
  H      -6.832827     -1.320482     -0.324841
  O      -6.006931      1.174284     -1.513124
  H      -6.713755      0.690185     -1.956396
  H      -5.508661      1.659088     -2.224588
  O      -5.316672      0.671406      1.528010
  H      -4.768187      0.074620      2.049200
  H      -4.887801      1.532823      1.590435
  O      -4.294290      2.471589     -3.063577
  H      -4.115006      1.967003     -3.864282
  H      -3.674330      2.105547     -2.393030
32
Coordinates from ORCA-job cu_P2_cplx E -2630.085388259899
  Cu     -4.660068     -0.032870     -0.666190
  C       3.848196     -0.957593      0.851981
  O       2.608893     -0.360494      0.480370
  C       1.522749     -1.135656      0.591776
  O       1.594550     -2.287758      0.986706
  C       0.283064     -0.460577      0.198000
  C      -0.911954     -1.184709      0.270351
  C      -2.113474     -0.587611     -0.085578
  O      -3.292069     -1.205908     -0.039198
  C      -2.112651      0.750869     -0.529952
  O      -3.268415      1.311071     -0.869704
  C      -0.912833      1.461855     -0.594475
  O      -0.931371      2.765994     -1.021362
  C       0.282900      0.870415     -0.230166
  H       3.833313     -1.255316      1.901534
  H       4.604908     -0.191539      0.696070
  H       4.062722     -1.825644      0.226356
  H      -0.898598     -2.214908      0.608788
  H      -1.856798      2.995060     -1.192304
  H       1.198612      1.445081     -0.285945
  O      -5.994823     -1.547060     -0.720830
  H      -5.678832     -2.304181     -0.211550
  H      -6.839501     -1.299086     -0.323537
  O      -6.016140      1.184527     -1.500091
  H      -6.710597      0.704954     -1.966187
  H      -5.524260      1.706936     -2.186649
  O      -5.295945      0.643299      1.544311
  H      -4.694373      0.078200      2.041592
  H      -4.907677      1.523564      1.597509
  O      -4.253901      2.433215     -3.090854
  H      -4.095258      1.872443     -3.858879
  H      -3.665598      2.078489     -2.385813
32
Coordinates from ORCA-job cu_P2_cplx E -2630.085517337429
  Cu     -4.656234     -0.039315     -0.661169
  C       3.854930     -0.961236      0.847253
  O       2.613605     -0.364033      0.480859
  C       1.527824     -1.139094      0.596193
  O       1.599868     -2.290880      0.991522
  C       0.287093     -0.464462      0.204379
  C      -0.908330     -1.188234      0.280416
  C      -2.108627     -0.591951     -0.080754
  O      -3.286821     -1.211466     -0.035573
  C      -2.108364      0.745363     -0.528117
  O      -3.263787      1.303531     -0.869040
  C      -0.908123      1.456183     -0.591814
  O      -0.924245      2.760189     -1.017099
  C       0.287425      0.865384     -0.228420
  H       3.844134     -1.261885      1.896051
  H       4.610437     -0.194151      0.690206
  H       4.067137     -1.827393      0.218554
  H      -0.896474     -2.217209      0.619757
  H      -1.848723      2.991785     -1.184575
  H       1.203120      1.440685     -0.286206
  O      -5.990070     -1.556922     -0.713540
  H      -5.673440     -2.310765     -0.200047
  H      -6.835795     -1.308660     -0.318966
  O      -6.011620      1.172311     -1.508022
  H      -6.707744      0.685160     -1.965168
  H      -5.525557      1.687953     -2.204491
  O      -5.315583      0.652031      1.529297
  H      -4.706254      0.109194      2.041749
  H      -4.950238      1.543113      1.574674
  O      -4.285584      2.455338     -3.079639
  H      -4.109413      1.927754     -3.865944
  H      -3.669776      2.106744     -2.396246
32
Coordinates from ORCA-job cu_P2_cplx E -2630.085573866618
  Cu     -4.654371     -0.051893     -0.661586
  C       3.856918     -0.959291      0.854814
  O       2.615526     -0.367365      0.478467
  C       1.529971     -1.141045      0.602117
  O       1.601594     -2.288138      1.010240
  C       0.288832     -0.471085      0.202980
  C      -0.905779     -1.195508      0.281660
  C      -2.106088     -0.602982     -0.085706
  O      -3.283038     -1.225483     -0.040749
  C      -2.107002      0.732796     -0.537870
  O      -3.263148      1.289166     -0.880662
  C      -0.907042      1.443660     -0.603922
  O      -0.922967      2.745977     -1.033304
  C       0.288406      0.855562     -0.236495
  H       3.842343     -1.252823      1.905453
  H       4.611036     -0.191620      0.695157
  H       4.073051     -1.829327      0.233342
  H      -0.893853     -2.221999      0.626473
  H      -1.846695      2.979974     -1.201273
  H       1.202463      1.431045     -0.292944
  O      -5.991224     -1.567879     -0.702904
  H      -5.677084     -2.320037     -0.184362
  H      -6.835601     -1.313913     -0.309150
  O      -6.011447      1.154161     -1.511748
  H      -6.706252      0.664765     -1.968887
  H      -5.529925      1.677612     -2.205890
  O      -5.310453      0.652313      1.524518
  H      -4.668644      0.143049      2.032983
  H      -4.977233      1.557352      1.543930
  O      -4.303554      2.501043     -3.047106
  H      -4.121931      2.026307     -3.864450
  H      -3.682040      2.120667     -2.387048
32
Coordinates from ORCA-job cu_P2_cplx E -2630.085643662951
  Cu     -4.649549     -0.067528     -0.662701
  C       3.861879     -0.960340      0.859854
  O       2.620327     -0.371273      0.477057
  C       1.534414     -1.141833      0.612808
  O       1.605134     -2.283066      1.036922
  C       0.292714     -0.477054      0.205642
  C      -0.900204     -1.203813      0.284244
  C      -2.100292     -0.616008     -0.091283
  O      -3.275338     -1.244007     -0.052617
  C      -2.103712      0.719298     -0.546131
  O      -3.259660      1.272163     -0.893232
  C      -0.904346      1.431754     -0.614943
  O      -0.920093      2.731297     -1.052871
  C       0.290951      0.846484     -0.242131
  H       3.845580     -1.246784      1.912216
  H       4.615340     -0.193544      0.694356
  H       4.077678     -1.835276      0.245322
  H      -0.889429     -2.228741      0.634890
  H      -1.842933      2.966666     -1.222962
  H       1.205071      1.421308     -0.299936
  O      -5.993391     -1.578403     -0.690586
  H      -5.680860     -2.329678     -0.170386
  H      -6.832185     -1.314546     -0.291044
  O      -6.009349      1.129716     -1.518340
  H      -6.695275      0.636014     -1.983654
  H      -5.536305      1.676161     -2.201227
  O      -5.312575      0.646174      1.514543
  H      -4.631889      0.195976      2.028368
  H      -5.035802      1.570206      1.505525
  O      -4.336426      2.544010     -3.009092
  H      -4.135632      2.133823     -3.856892
  H      -3.699072      2.145910     -2.375639
32
Coordinates from ORCA-job cu_P2_cplx E -2630.085669497434
  Cu     -4.648140     -0.073482     -0.665512
  C       3.863129     -0.960154      0.861795
  O       2.621572     -0.372634      0.475634
  C       1.535395     -1.141471      0.617212
  O       1.605468     -2.279801      1.049486
  C       0.293588     -0.478957      0.205944
  C      -0.898214     -1.208047      0.280433
  C      -2.097973     -0.622481     -0.099584
  O      -3.271362     -1.254540     -0.069698
  C      -2.103235      0.715045     -0.548761
  O      -3.259334      1.266569     -0.897116
  C      -0.904499      1.428512     -0.616518
  O      -0.920543      2.727771     -1.053839
  C       0.291188      0.844214     -0.242863
  H       3.846076     -1.241179      1.915736
  H       4.616611     -0.194290      0.691815
  H       4.078125     -1.838705      0.251921
  H      -0.888027     -2.233655      0.628787
  H      -1.843407      2.963094     -1.222749
  H       1.206060      1.419202     -0.300921
  O      -5.996317     -1.581119     -0.685604
  H      -5.684321     -2.329135     -0.160334
  H      -6.833095     -1.311355     -0.285692
  O      -6.011787      1.121280     -1.518793
  H      -6.692710      0.627963     -1.991378
  H      -5.544318      1.682636     -2.191893
  O      -5.306021      0.635280      1.512754
  H      -4.594575      0.232044      2.024307
  H      -5.077159      1.571801      1.488583
  O      -4.333652      2.559341     -2.999508
  H      -4.139693      2.152900     -3.850653
  H      -3.704063      2.148418     -2.366910
32
Coordinates from ORCA-job cu_P2_cplx E -2630.085695314311
  Cu     -4.646940     -0.077374     -0.667869
  C       3.864159     -0.959644      0.864643
  O       2.622735     -0.373046      0.477082
  C       1.536574     -1.142249      0.618180
  O       1.606761     -2.280334      1.051450
  C       0.294947     -0.480955      0.204910
  C      -0.896103     -1.212066      0.275161
  C      -2.095876     -0.627633     -0.106390
  O      -3.268330     -1.261750     -0.081926
  C      -2.102233      0.712038     -0.550616
  O      -3.258504      1.263082     -0.899167
  C      -0.904287      1.426442     -0.616949
  O      -0.921358      2.725799     -1.053474
  C       0.291639      0.842625     -0.241838
  H       3.846412     -1.237603      1.919494
  H       4.617809     -0.194227      0.692629
  H       4.079104     -1.840002      0.257166
  H      -0.885635     -2.239123      0.620207
  H      -1.844560      2.960640     -1.222191
  H       1.206012      1.417922     -0.296964
  O      -5.998134     -1.581988     -0.683460
  H      -5.685866     -2.328223     -0.155746
  H      -6.833639     -1.309507     -0.282446
  O      -6.011878      1.119526     -1.515294
  H      -6.685072      0.627618     -2.000354
  H      -5.542197      1.691255     -2.177702
  O      -5.300466      0.627606      1.511673
  H      -4.568449      0.264600      2.024543
  H      -5.115562      1.573534      1.479081
  O      -4.338685      2.562935     -2.994089
  H      -4.154580      2.152967     -3.845926
  H      -3.703030      2.152198     -2.367739
32
Coordinates from ORCA-job cu_P2_cplx E -2630.085703986367
  Cu     -4.646391     -0.078868     -0.670592
  C       3.864248     -0.959943      0.867070
  O       2.623299     -0.374499      0.476940
  C       1.537047     -1.143380      0.617806
  O       1.607060     -2.280997      1.052228
  C       0.295963     -0.482437      0.203082
  C      -0.895343     -1.213798      0.271691
  C      -2.094896     -0.629772     -0.110849
  O      -3.267081     -1.264047     -0.088841
  C      -2.100870      0.710827     -0.553131
  O      -3.257416      1.262031     -0.900743
  C      -0.903049      1.425178     -0.618925
  O      -0.919962      2.724761     -1.055444
  C       0.292906      0.841036     -0.243651
  H       3.846247     -1.232019      1.923274
  H       4.618428     -0.196124      0.691524
  H       4.079114     -1.843297      0.264165
  H      -0.884430     -2.241519      0.615325
  H      -1.843326      2.959438     -1.224143
  H       1.207216      1.416999     -0.298300
  O      -5.997992     -1.583539     -0.679990
  H      -5.682986     -2.327612     -0.150875
  H      -6.831556     -1.310369     -0.275331
  O      -6.013444      1.116232     -1.516249
  H      -6.682057      0.623244     -2.006383
  H      -5.545091      1.692991     -2.175510
  O      -5.298514      0.624121      1.508310
  H      -4.560760      0.281077      2.026540
  H      -5.137741      1.574237      1.471632
  O      -4.340702      2.569158     -2.986658
  H      -4.156172      2.159100     -3.838611
  H      -3.706982      2.156858     -2.359281
32
Coordinates from ORCA-job cu_P2_cplx E -2630.085715919253
  Cu     -4.646000     -0.081686     -0.673770
  C       3.864071     -0.959737      0.872739
  O       2.623814     -0.376673      0.477899
  C       1.537743     -1.146159      0.616812
  O       1.607789     -2.283699      1.051533
  C       0.297423     -0.485647      0.199873
  C      -0.894050     -1.217118      0.266486
  C      -2.093421     -0.633338     -0.116694
  O      -3.265625     -1.267148     -0.094958
  C      -2.098875      0.707520     -0.558547
  O      -3.255895      1.258019     -0.906254
  C      -0.901162      1.421708     -0.622689
  O      -0.917118      2.721792     -1.057775
  C       0.294510      0.837923     -0.246022
  H       3.845360     -1.224099      1.930762
  H       4.618885     -0.197479      0.693426
  H       4.080052     -1.846808      0.275977
  H      -0.882260     -2.245481      0.608185
  H      -1.840322      2.957954     -1.224775
  H       1.208031      1.415570     -0.298459
  O      -5.996564     -1.586346     -0.674285
  H      -5.677936     -2.326650     -0.141746
  H      -6.828989     -1.313278     -0.267303
  O      -6.015850      1.112185     -1.514881
  H      -6.677876      0.617934     -2.012849
  H      -5.546654      1.694229     -2.169373
  O      -5.294116      0.621013      1.505375
  H      -4.547095      0.303743      2.026543
  H      -5.163274      1.575410      1.460356
  O      -4.348465      2.581053     -2.977618
  H      -4.169649      2.178459     -3.834125
  H      -3.711716      2.161897     -2.357766
32
Coordinates from ORCA-job cu_P2_cplx E -2630.085716180021
  Cu     -4.645789     -0.082400     -0.672934
  C       3.865402     -0.959514      0.871885
  O       2.624792     -0.377125      0.477432
  C       1.539261     -1.147723      0.614784
  O       1.610158     -2.286161      1.047072
  C       0.298644     -0.487148      0.198997
  C      -0.892661     -1.219104      0.264694
  C      -2.092140     -0.635478     -0.118362
  O      -3.264117     -1.269167     -0.097346
  C      -2.097825      0.705701     -0.559145
  O      -3.255116      1.255396     -0.907051
  C      -0.900504      1.420437     -0.621848
  O      -0.916471      2.721006     -1.055422
  C       0.295136      0.837052     -0.244898
  H       3.847871     -1.222305      1.930205
  H       4.620071     -0.197491      0.691082
  H       4.081210     -1.847144      0.276136
  H      -0.879881     -2.247905      0.604934
  H      -1.839487      2.957820     -1.222328
  H       1.207818      1.415837     -0.295585
  O      -5.997507     -1.585968     -0.670554
  H      -5.676993     -2.322976     -0.134641
  H      -6.829433     -1.311931     -0.263105
  O      -6.016199      1.110367     -1.517031
  H      -6.674005      0.613943     -2.018353
  H      -5.545886      1.692478     -2.170631
  O      -5.297648      0.618868      1.500573
  H      -4.545730      0.321943      2.026609
  H      -5.191995      1.576168      1.452103
  O      -4.347851      2.583026     -2.972714
  H      -4.167063      2.178133     -3.827587
  H      -3.711293      2.166429     -2.350890
32
Coordinates from ORCA-job cu_P2_cplx E -2630.085743420514
  Cu     -4.645335     -0.084639     -0.673171
  C       3.866022     -0.959486      0.873267
  O       2.625346     -0.377640      0.478190
  C       1.540111     -1.148678      0.615582
  O       1.611309     -2.286945      1.048194
  C       0.299253     -0.488668      0.199113
  C      -0.891629     -1.221089      0.264964
  C      -2.091110     -0.638061     -0.119215
  O      -3.263170     -1.271941     -0.097558
  C      -2.097178      0.702514     -0.561716
  O      -3.254536      1.251199     -0.911229
  C      -0.900165      1.418045     -0.623682
  O      -0.916045      2.718422     -1.057882
  C       0.295356      0.835504     -0.245399
  H       3.848539     -1.221553      1.931755
  H       4.620603     -0.197527      0.691715
  H       4.081891     -1.847607      0.278287
  H      -0.878668     -2.249311      0.607030
  H      -1.838952      2.955614     -1.224749
  H       1.207661      1.414933     -0.295729
  O      -5.997434     -1.587863     -0.669001
  H      -5.675000     -2.323612     -0.132497
  H      -6.828735     -1.313845     -0.260412
  O      -6.017668      1.107455     -1.517276
  H      -6.671399      0.609669     -2.022698
  H      -5.547067      1.693340     -2.167546
  O      -5.296069      0.618684      1.499363
  H      -4.537162      0.336608      2.023496
  H      -5.205816      1.577286      1.445056
  O      -4.352072      2.590860     -2.965792
  H      -4.172804      2.194395     -3.824938
  H      -3.713307      2.169002     -2.349442
32
Coordinates from ORCA-job cu_P2_cplx E -2630.085726649399
  Cu     -4.645460     -0.083092     -0.671094
  C       3.866214     -0.959491      0.872768
  O       2.625272     -0.376696      0.479326
  C       1.540562     -1.148795      0.614586
  O       1.612218     -2.288026      1.044569
  C       0.299227     -0.488424      0.199215
  C      -0.891375     -1.220692      0.266497
  C      -2.091153     -0.637182     -0.116421
  O      -3.263734     -1.270435     -0.092031
  C      -2.097294      0.702230     -0.561381
  O      -3.254269      1.250508     -0.912045
  C      -0.900288      1.418375     -0.623487
  O      -0.916225      2.718534     -1.058050
  C       0.295196      0.835954     -0.245324
  H       3.848810     -1.225595      1.930323
  H       4.620398     -0.196654      0.693442
  H       4.082078     -1.845776      0.274921
  H      -0.878671     -2.247982      0.610984
  H      -1.839087      2.955964     -1.224596
  H       1.207660      1.415096     -0.296406
  O      -5.997312     -1.586744     -0.670687
  H      -5.673614     -2.322711     -0.135251
  H      -6.828635     -1.313758     -0.261796
  O      -6.018833      1.107986     -1.517741
  H      -6.671302      0.608214     -2.022873
  H      -5.547545      1.693431     -2.167825
  O      -5.298998      0.620463      1.500290
  H      -4.541357      0.331948      2.022714
  H      -5.202635      1.578583      1.447539
  O      -4.350972      2.589485     -2.966845
  H      -4.172012      2.193419     -3.826331
  H      -3.712094      2.166922     -2.350914
32
Coordinates from ORCA-job cu_P2_cplx E -2630.085723221001
  Cu     -4.644924     -0.083297     -0.670997
  C       3.866703     -0.959514      0.873693
  O       2.625692     -0.376630      0.480393
  C       1.541169     -1.149206      0.614515
  O       1.612940     -2.288656      1.043989
  C       0.299801     -0.489113      0.198714
  C      -0.890703     -1.221533      0.265898
  C      -2.090507     -0.637959     -0.116777
  O      -3.263195     -1.271117     -0.092052
  C      -2.096735      0.701235     -0.562296
  O      -3.253553      1.249302     -0.913444
  C      -0.899837      1.417632     -0.624288
  O      -0.915881      2.717652     -1.059037
  C       0.295689      0.835200     -0.245987
  H       3.848972     -1.226498      1.931070
  H       4.620734     -0.196393      0.694949
  H       4.082726     -1.845446      0.275348
  H      -0.878229     -2.248568      0.610828
  H      -1.838798      2.955055     -1.225304
  H       1.208272      1.414131     -0.297138
  O      -5.996992     -1.587292     -0.669935
  H      -5.672952     -2.322310     -0.133420
  H      -6.827993     -1.313447     -0.260991
  O      -6.019816      1.106775     -1.517751
  H      -6.669745      0.605919     -2.024976
  H      -5.548491      1.694267     -2.165928
  O      -5.299010      0.619833      1.498876
  H      -4.538838      0.338660      2.021554
  H      -5.211236      1.578697      1.445935
  O      -4.352548      2.591825     -2.964283
  H      -4.174794      2.198058     -3.825071
  H      -3.713150      2.167802     -2.350011
32
Coordinates from ORCA-job cu_P2_cplx E -2630.085727759342
  Cu     -4.644349     -0.082128     -0.670065
  C       3.867155     -0.959957      0.874553
  O       2.626118     -0.376390      0.482157
  C       1.541723     -1.149656      0.613620
  O       1.613476     -2.289762      1.041332
  C       0.300508     -0.489566      0.197716
  C      -0.890346     -1.221607      0.265637
  C      -2.090117     -0.637362     -0.115789
  O      -3.263108     -1.269840     -0.089940
  C      -2.096041      0.701567     -0.562159
  O      -3.252663      1.250006     -0.913259
  C      -0.898966      1.417547     -0.625089
  O      -0.915001      2.717276     -1.060810
  C       0.296683      0.834485     -0.247567
  H       3.848848     -1.229303      1.931371
  H       4.621040     -0.196267      0.697667
  H       4.083440     -1.844687      0.274485
  H      -0.878605     -2.248405      0.611292
  H      -1.838091      2.954461     -1.226760
  H       1.209866      1.412451     -0.299908
  O      -5.995710     -1.588067     -0.669596
  H      -5.670511     -2.322596     -0.133153
  H      -6.825842     -1.313964     -0.258979
  O      -6.021032      1.105250     -1.518242
  H      -6.667537      0.602565     -2.027752
  H      -5.549380      1.694740     -2.164479
  O      -5.301931      0.620367      1.496769
  H      -4.542364      0.341536      2.021570
  H      -5.218236      1.579645      1.446459
  O      -4.353511      2.593494     -2.962329
  H      -4.176910      2.200310     -3.823659
  H      -3.713837      2.168917     -2.349014
32
Coordinates from ORCA-job cu_P2_cplx E -2630.085719003708
  Cu     -4.644007     -0.081197     -0.669502
  C       3.867450     -0.960530      0.874398
  O       2.626348     -0.376305      0.483173
  C       1.541965     -1.149885      0.613136
  O       1.613690     -2.290492      1.039537
  C       0.300884     -0.489561      0.197535
  C      -0.890334     -1.221109      0.266078
  C      -2.090103     -0.636417     -0.114499
  O      -3.263344     -1.268179     -0.087642
  C      -2.095577      0.702286     -0.561745
  O      -3.252171      1.251001     -0.912799
  C      -0.898330      1.417701     -0.625320
  O      -0.914255      2.717260     -1.061496
  C       0.297327      0.834250     -0.248169
  H       3.849047     -1.231829      1.930711
  H       4.621193     -0.196380      0.699045
  H       4.083834     -1.844072      0.272641
  H      -0.879060     -2.247776      0.612049
  H      -1.837431      2.954276     -1.227357
  H       1.210839      1.411546     -0.301299
  O      -5.994046     -1.588941     -0.669341
  H      -5.668416     -2.323028     -0.132554
  H      -6.823821     -1.314650     -0.258054
  O      -6.021320      1.104384     -1.519261
  H      -6.666349      0.600657     -2.029424
  H      -5.549573      1.694191     -2.165246
  O      -5.305498      0.622125      1.495147
  H      -4.548695      0.339666      2.022044
  H      -5.219153      1.581327      1.448467
  O      -4.354303      2.593842     -2.961900
  H      -4.177713      2.201274     -3.823513
  H      -3.714306      2.169627     -2.348762
32
Coordinates from ORCA-job cu_P2_cplx E -2630.085729491525
  Cu     -4.643807     -0.080451     -0.668165
  C       3.867956     -0.961109      0.873510
  O       2.626823     -0.376416      0.483152
  C       1.542466     -1.150283      0.611960
  O       1.614274     -2.291443      1.036843
  C       0.301413     -0.489563      0.197218
  C      -0.890135     -1.220697      0.266339
  C      -2.089945     -0.635597     -0.113432
  O      -3.263313     -1.266784     -0.085770
  C      -2.095107      0.703147     -0.560647
  O      -3.251844      1.252173     -0.911015
  C      -0.897669      1.418005     -0.624881
  O      -0.913424      2.717589     -1.061138
  C       0.297988      0.834217     -0.248420
  H       3.849651     -1.233704      1.929495
  H       4.621628     -0.196595      0.699277
  H       4.084419     -1.843758      0.270447
  H      -0.879015     -2.247522      0.611960
  H      -1.836614      2.954608     -1.226836
  H       1.211698      1.411215     -0.302250
  O      -5.992812     -1.589631     -0.668713
  H      -5.666824     -2.323318     -0.131591
  H      -6.822186     -1.315153     -0.256638
  O      -6.020811      1.103160     -1.520104
  H      -6.664566      0.598827     -2.031265
  H      -5.548723      1.693252     -2.165692
  O      -5.311269      0.623721      1.493205
  H      -4.556963      0.340294      2.023179
  H      -5.224747      1.583025      1.448599
  O      -4.353572      2.593728     -2.961754
  H      -4.176663      2.199739     -3.822650
  H      -3.713536      2.170384     -2.348143
32
Coordinates from ORCA-job cu_P2_cplx E -2630.085729440741
  Cu     -4.643851     -0.080164     -0.667324
  C       3.868130     -0.961524      0.872193
  O       2.626949     -0.376474      0.482610
  C       1.542547     -1.150306      0.611499
  O       1.614400     -2.291716      1.035708
  C       0.301471     -0.489180      0.197523
  C      -0.890215     -1.219991      0.267311
  C      -2.090062     -0.634819     -0.112273
  O      -3.263539     -1.265688     -0.083728
  C      -2.095035      0.703837     -0.559788
  O      -3.251942      1.252995     -0.909785
  C      -0.897487      1.418406     -0.624541
  O      -0.913151      2.717952     -1.060964
  C       0.298121      0.834578     -0.248267
  H       3.849986     -1.235377      1.927828
  H       4.621745     -0.196686      0.698962
  H       4.084694     -1.843297      0.267890
  H      -0.878985     -2.246815      0.613057
  H      -1.836338      2.954864     -1.226774
  H       1.211770      1.411524     -0.302406
  O      -5.991931     -1.590369     -0.668538
  H      -5.666373     -2.323613     -0.130525
  H      -6.821521     -1.315557     -0.257079
  O      -6.020031      1.102538     -1.521146
  H      -6.663652      0.598370     -2.032664
  H      -5.547639      1.692484     -2.166662
  O      -5.315273      0.625303      1.492384
  H      -4.563393      0.337909      2.023650
  H      -5.224924      1.584342      1.449706
  O      -4.352264      2.593019     -2.961746
  H      -4.174660      2.199042     -3.822494
  H      -3.712780      2.169478     -2.347535
32
Coordinates from ORCA-job cu_P2_cplx E -2630.085732815179
  Cu     -4.643892     -0.080166     -0.666533
  C       3.868456     -0.961898      0.870801
  O       2.627170     -0.376529      0.482033
  C       1.542753     -1.150276      0.611324
  O       1.614733     -2.291870      1.035040
  C       0.301519     -0.488820      0.198180
  C      -0.890195     -1.219404      0.268773
  C      -2.090082     -0.634361     -0.111025
  O      -3.263644     -1.265117     -0.081674
  C      -2.095002      0.704092     -0.559153
  O      -3.251964      1.253226     -0.909136
  C      -0.897364      1.418551     -0.624348
  O      -0.912897      2.717940     -1.061150
  C       0.298218      0.834864     -0.248018
  H       3.850659     -1.236853      1.926148
  H       4.622018     -0.196855      0.698164
  H       4.084948     -1.843003      0.265466
  H      -0.878790     -2.246106      0.614923
  H      -1.836026      2.954998     -1.226972
  H       1.211827      1.411871     -0.302544
  O      -5.991426     -1.590950     -0.668172
  H      -5.666372     -2.323588     -0.129021
  H      -6.821545     -1.315923     -0.257913
  O      -6.019322      1.101759     -1.522133
  H      -6.662584      0.597648     -2.034259
  H      -5.546780      1.692099     -2.167177
  O      -5.318579      0.625567      1.491715
  H      -4.567865      0.337128      2.024071
  H      -5.227393      1.584588      1.449788
  O      -4.351214      2.593200     -2.961625
  H      -4.172516      2.199841     -3.822433
  H      -3.712079      2.169411     -2.347062
32
Coordinates from ORCA-job cu_P2_cplx E -2630.085726268949
  Cu     -4.643901     -0.080504     -0.666167
  C       3.868768     -0.961890      0.870029
  O       2.627383     -0.376563      0.481566
  C       1.542990     -1.150281      0.611280
  O       1.615118     -2.291968      1.034768
  C       0.301605     -0.488638      0.198672
  C      -0.890041     -1.219155      0.269687
  C      -2.089935     -0.634363     -0.110604
  O      -3.263484     -1.265183     -0.080933
  C      -2.094953      0.703954     -0.559020
  O      -3.251936      1.252924     -0.909109
  C      -0.897293      1.418455     -0.624377
  O      -0.912656      2.717739     -1.061486
  C       0.298315      0.834982     -0.247832
  H       3.851025     -1.237692      1.925170
  H       4.622203     -0.196582      0.697965
  H       4.085558     -1.842485      0.264031
  H      -0.878363     -2.245726      0.616191
  H      -1.835681      2.954988     -1.227482
  H       1.211806      1.412213     -0.302563
  O      -5.991220     -1.591462     -0.667926
  H      -5.667653     -2.322462     -0.125661
  H      -6.822899     -1.315748     -0.261362
  O      -6.018742      1.101545     -1.522533
  H      -6.662061      0.597942     -2.035196
  H      -5.546155      1.692310     -2.167002
  O      -5.319844      0.624622      1.491703
  H      -4.568832      0.337622      2.024386
  H      -5.230760      1.583859      1.450181
  O      -4.350340      2.593349     -2.961248
  H      -4.171681      2.200522     -3.822308
  H      -3.711569      2.168740     -2.346741
32
Coordinates from ORCA-job cu_P2_cplx E -2630.085733431638
  Cu     -4.643875     -0.080520     -0.666018
  C       3.868864     -0.961855      0.869786
  O       2.627433     -0.376535      0.481468
  C       1.543015     -1.150161      0.611416
  O       1.615132     -2.291815      1.035035
  C       0.301611     -0.488519      0.198838
  C      -0.890051     -1.218960      0.270225
  C      -2.089942     -0.634238     -0.110135
  O      -3.263535     -1.264990     -0.080176
  C      -2.094998      0.703963     -0.558933
  O      -3.251943      1.252921     -0.909041
  C      -0.897303      1.418419     -0.624690
  O      -0.912613      2.717567     -1.062207
  C       0.298349      0.834953     -0.248100
  H       3.851141     -1.237899      1.924883
  H       4.622272     -0.196498      0.697734
  H       4.085643     -1.842383      0.263665
  H      -0.878359     -2.245369      0.617107
  H      -1.835626      2.954912     -1.228104
  H       1.211866      1.412078     -0.303163
  O      -5.991058     -1.591642     -0.668198
  H      -5.668088     -2.321841     -0.124536
  H      -6.823568     -1.315788     -0.263448
  O      -6.018567      1.101372     -1.522609
  H      -6.661924      0.598000     -2.035457
  H      -5.546066      1.692554     -2.166724
  O      -5.320260      0.624048      1.492107
  H      -4.569573      0.336533      2.024943
  H      -5.230757      1.583251      1.450705
  O      -4.349939      2.593672     -2.961238
  H      -4.171217      2.200914     -3.822314
  H      -3.711294      2.168921     -2.346743
32
Coordinates from ORCA-job cu_P2_cplx E -2630.085729841453
  Cu     -4.643662     -0.080506     -0.665557
  C       3.869187     -0.961948      0.869712
  O       2.627712     -0.376535      0.481692
  C       1.543319     -1.150133      0.611470
  O       1.615400     -2.291825      1.035042
  C       0.301949     -0.488536      0.198762
  C      -0.889839     -1.218710      0.271041
  C      -2.089705     -0.633976     -0.109200
  O      -3.263438     -1.264483     -0.078447
  C      -2.094825      0.703947     -0.558889
  O      -3.251745      1.252849     -0.908877
  C      -0.896986      1.418100     -0.625656
  O      -0.912052      2.716974     -1.064052
  C       0.298759      0.834547     -0.249215
  H       3.851355     -1.238710      1.924624
  H       4.622527     -0.196451      0.698029
  H       4.086046     -1.842167      0.263157
  H      -0.878345     -2.244811      0.618832
  H      -1.835064      2.954666     -1.229410
  H       1.212395      1.411388     -0.305179
  O      -5.990402     -1.592290     -0.668314
  H      -5.668369     -2.320752     -0.121761
  H      -6.824277     -1.316034     -0.266694
  O      -6.018319      1.100646     -1.523124
  H      -6.660767      0.597121     -2.036953
  H      -5.545960      1.692984     -2.166248
  O      -5.321711      0.622910      1.492157
  H      -4.571416      0.336176      2.025952
  H      -5.233722      1.582280      1.451337
  O      -4.350261      2.595102     -2.960295
  H      -4.171536      2.203025     -3.821677
  H      -3.711478      2.170213     -2.346182
32
Coordinates from ORCA-job cu_P2_cplx E -2630.085724390925
  Cu     -4.643674     -0.080569     -0.665731
  C       3.869136     -0.961897      0.869729
  O       2.627657     -0.376545      0.481615
  C       1.543233     -1.150073      0.611659
  O       1.615279     -2.291621      1.035618
  C       0.301880     -0.488590      0.198836
  C      -0.889990     -1.218681      0.271290
  C      -2.089829     -0.633927     -0.108953
  O      -3.263558     -1.264388     -0.078138
  C      -2.094909      0.703931     -0.558909
  O      -3.251824      1.252846     -0.908970
  C      -0.897026      1.417953     -0.625770
  O      -0.912040      2.716781     -1.064312
  C       0.298706      0.834393     -0.249354
  H       3.851390     -1.238264      1.924753
  H       4.622483     -0.196500      0.697723
  H       4.085890     -1.842361      0.263484
  H      -0.878616     -2.244739      0.619159
  H      -1.835090      2.954626     -1.229250
  H       1.212401      1.411131     -0.305491
  O      -5.990271     -1.592380     -0.668586
  H      -5.668316     -2.320706     -0.121824
  H      -6.824355     -1.316228     -0.267310
  O      -6.018451      1.100681     -1.523208
  H      -6.660870      0.597132     -2.037036
  H      -5.546098      1.693054     -2.166318
  O      -5.320999      0.622862      1.492102
  H      -4.570613      0.335729      2.025567
  H      -5.232485      1.582176      1.451146
  O      -4.350528      2.595411     -2.959985
  H      -4.171995      2.203452     -3.821465
  H      -3.711747      2.170375     -2.345992
