32
Coordinates from ORCA-job cu_P2_cplx E -2630.085724390925
  Cu         -4.64367446514609     -0.08056875506057     -0.66573113142823
  C           3.86913596318576     -0.96189746275181      0.86972897605521
  O           2.62765658514958     -0.37654486126808      0.48161527576302
  C           1.54323315988523     -1.15007348706652      0.61165929835413
  O           1.61527907704444     -2.29162070398087      1.03561770269401
  C           0.30187954125351     -0.48858956568039      0.19883579593656
  C          -0.88999031223381     -1.21868095489506      0.27129036001728
  C          -2.08982899125960     -0.63392711217178     -0.10895306352869
  O          -3.26355817253146     -1.26438843762075     -0.07813774328623
  C          -2.09490876692125      0.70393077169610     -0.55890882569922
  O          -3.25182417475227      1.25284571434660     -0.90896981630559
  C          -0.89702648411462      1.41795331357022     -0.62577033931970
  O          -0.91203980655472      2.71678087665381     -1.06431206345332
  C           0.29870609830862      0.83439259922690     -0.24935425210253
  H           3.85138971745917     -1.23826372507651      1.92475312635511
  H           4.62248307007197     -0.19650025966479      0.69772338418584
  H           4.08589049478401     -1.84236120892361      0.26348365274843
  H          -0.87861602334607     -2.24473877814587      0.61915878299287
  H          -1.83509044283714      2.95462552201709     -1.22925042167033
  H           1.21240115974231      1.41113126845831     -0.30549102407801
  O          -5.99027065800359     -1.59238018437673     -0.66858597056950
  H          -5.66831569696519     -2.32070553005246     -0.12182378261714
  H          -6.82435538202335     -1.31622768626537     -0.26731044403983
  O          -6.01845118974726      1.10068137587997     -1.52320793602045
  H          -6.66087003022713      0.59713203634472     -2.03703592605432
  H          -5.54609805734861      1.69305376475150     -2.16631804995964
  O          -5.32099888674055      0.62286196389706      1.49210224532151
  H          -4.57061293758177      0.33572919760495      2.02556677995796
  H          -5.23248470154679      1.58217597075080      1.45114576308393
  O          -4.35052844119921      2.59541064362688     -2.95998517705796
  H          -4.17199487302916      2.20345243513690     -3.82146502991500
  H          -3.71174680277431      2.17037488903934     -2.34599171636007
